c S_n-invariant Hales-Jewett, k=4, n=15
p cnf 816 6120
1 2 3 4 0
-1 -2 -3 -4 0
3 5 6 7 0
-3 -5 -6 -7 0
7 8 9 10 0
-7 -8 -9 -10 0
10 11 12 13 0
-10 -11 -12 -13 0
13 14 15 16 0
-13 -14 -15 -16 0
16 17 18 19 0
-16 -17 -18 -19 0
19 20 21 22 0
-19 -20 -21 -22 0
22 23 24 25 0
-22 -23 -24 -25 0
25 26 27 28 0
-25 -26 -27 -28 0
28 29 30 31 0
-28 -29 -30 -31 0
31 32 33 34 0
-31 -32 -33 -34 0
34 35 36 37 0
-34 -35 -36 -37 0
37 38 39 40 0
-37 -38 -39 -40 0
40 41 42 43 0
-40 -41 -42 -43 0
43 44 45 46 0
-43 -44 -45 -46 0
2 6 47 48 0
-2 -6 -47 -48 0
6 9 49 50 0
-6 -9 -49 -50 0
9 12 51 52 0
-9 -12 -51 -52 0
12 15 53 54 0
-12 -15 -53 -54 0
15 18 55 56 0
-15 -18 -55 -56 0
18 21 57 58 0
-18 -21 -57 -58 0
21 24 59 60 0
-21 -24 -59 -60 0
24 27 61 62 0
-24 -27 -61 -62 0
27 30 63 64 0
-27 -30 -63 -64 0
30 33 65 66 0
-30 -33 -65 -66 0
33 36 67 68 0
-33 -36 -67 -68 0
36 39 69 70 0
-36 -39 -69 -70 0
39 42 71 72 0
-39 -42 -71 -72 0
42 45 73 74 0
-42 -45 -73 -74 0
48 50 75 76 0
-48 -50 -75 -76 0
50 52 77 78 0
-50 -52 -77 -78 0
52 54 79 80 0
-52 -54 -79 -80 0
54 56 81 82 0
-54 -56 -81 -82 0
56 58 83 84 0
-56 -58 -83 -84 0
58 60 85 86 0
-58 -60 -85 -86 0
60 62 87 88 0
-60 -62 -87 -88 0
62 64 89 90 0
-62 -64 -89 -90 0
64 66 91 92 0
-64 -66 -91 -92 0
66 68 93 94 0
-66 -68 -93 -94 0
68 70 95 96 0
-68 -70 -95 -96 0
70 72 97 98 0
-70 -72 -97 -98 0
72 74 99 100 0
-72 -74 -99 -100 0
76 78 101 102 0
-76 -78 -101 -102 0
78 80 103 104 0
-78 -80 -103 -104 0
80 82 105 106 0
-80 -82 -105 -106 0
82 84 107 108 0
-82 -84 -107 -108 0
84 86 109 110 0
-84 -86 -109 -110 0
86 88 111 112 0
-86 -88 -111 -112 0
88 90 113 114 0
-88 -90 -113 -114 0
90 92 115 116 0
-90 -92 -115 -116 0
92 94 117 118 0
-92 -94 -117 -118 0
94 96 119 120 0
-94 -96 -119 -120 0
96 98 121 122 0
-96 -98 -121 -122 0
98 100 123 124 0
-98 -100 -123 -124 0
102 104 125 126 0
-102 -104 -125 -126 0
104 106 127 128 0
-104 -106 -127 -128 0
106 108 129 130 0
-106 -108 -129 -130 0
108 110 131 132 0
-108 -110 -131 -132 0
110 112 133 134 0
-110 -112 -133 -134 0
112 114 135 136 0
-112 -114 -135 -136 0
114 116 137 138 0
-114 -116 -137 -138 0
116 118 139 140 0
-116 -118 -139 -140 0
118 120 141 142 0
-118 -120 -141 -142 0
120 122 143 144 0
-120 -122 -143 -144 0
122 124 145 146 0
-122 -124 -145 -146 0
126 128 147 148 0
-126 -128 -147 -148 0
128 130 149 150 0
-128 -130 -149 -150 0
130 132 151 152 0
-130 -132 -151 -152 0
132 134 153 154 0
-132 -134 -153 -154 0
134 136 155 156 0
-134 -136 -155 -156 0
136 138 157 158 0
-136 -138 -157 -158 0
138 140 159 160 0
-138 -140 -159 -160 0
140 142 161 162 0
-140 -142 -161 -162 0
142 144 163 164 0
-142 -144 -163 -164 0
144 146 165 166 0
-144 -146 -165 -166 0
148 150 167 168 0
-148 -150 -167 -168 0
150 152 169 170 0
-150 -152 -169 -170 0
152 154 171 172 0
-152 -154 -171 -172 0
154 156 173 174 0
-154 -156 -173 -174 0
156 158 175 176 0
-156 -158 -175 -176 0
158 160 177 178 0
-158 -160 -177 -178 0
160 162 179 180 0
-160 -162 -179 -180 0
162 164 181 182 0
-162 -164 -181 -182 0
164 166 183 184 0
-164 -166 -183 -184 0
168 170 185 186 0
-168 -170 -185 -186 0
170 172 187 188 0
-170 -172 -187 -188 0
172 174 189 190 0
-172 -174 -189 -190 0
174 176 191 192 0
-174 -176 -191 -192 0
176 178 193 194 0
-176 -178 -193 -194 0
178 180 195 196 0
-178 -180 -195 -196 0
180 182 197 198 0
-180 -182 -197 -198 0
182 184 199 200 0
-182 -184 -199 -200 0
186 188 201 202 0
-186 -188 -201 -202 0
188 190 203 204 0
-188 -190 -203 -204 0
190 192 205 206 0
-190 -192 -205 -206 0
192 194 207 208 0
-192 -194 -207 -208 0
194 196 209 210 0
-194 -196 -209 -210 0
196 198 211 212 0
-196 -198 -211 -212 0
198 200 213 214 0
-198 -200 -213 -214 0
202 204 215 216 0
-202 -204 -215 -216 0
204 206 217 218 0
-204 -206 -217 -218 0
206 208 219 220 0
-206 -208 -219 -220 0
208 210 221 222 0
-208 -210 -221 -222 0
210 212 223 224 0
-210 -212 -223 -224 0
212 214 225 226 0
-212 -214 -225 -226 0
216 218 227 228 0
-216 -218 -227 -228 0
218 220 229 230 0
-218 -220 -229 -230 0
220 222 231 232 0
-220 -222 -231 -232 0
222 224 233 234 0
-222 -224 -233 -234 0
224 226 235 236 0
-224 -226 -235 -236 0
228 230 237 238 0
-228 -230 -237 -238 0
230 232 239 240 0
-230 -232 -239 -240 0
232 234 241 242 0
-232 -234 -241 -242 0
234 236 243 244 0
-234 -236 -243 -244 0
238 240 245 246 0
-238 -240 -245 -246 0
240 242 247 248 0
-240 -242 -247 -248 0
242 244 249 250 0
-242 -244 -249 -250 0
246 248 251 252 0
-246 -248 -251 -252 0
248 250 253 254 0
-248 -250 -253 -254 0
252 254 255 256 0
-252 -254 -255 -256 0
1 5 47 257 0
-1 -5 -47 -257 0
5 8 49 258 0
-5 -8 -49 -258 0
8 11 51 259 0
-8 -11 -51 -259 0
11 14 53 260 0
-11 -14 -53 -260 0
14 17 55 261 0
-14 -17 -55 -261 0
17 20 57 262 0
-17 -20 -57 -262 0
20 23 59 263 0
-20 -23 -59 -263 0
23 26 61 264 0
-23 -26 -61 -264 0
26 29 63 265 0
-26 -29 -63 -265 0
29 32 65 266 0
-29 -32 -65 -266 0
32 35 67 267 0
-32 -35 -67 -267 0
35 38 69 268 0
-35 -38 -69 -268 0
38 41 71 269 0
-38 -41 -71 -269 0
41 44 73 270 0
-41 -44 -73 -270 0
47 49 75 271 0
-47 -49 -75 -271 0
49 51 77 272 0
-49 -51 -77 -272 0
51 53 79 273 0
-51 -53 -79 -273 0
53 55 81 274 0
-53 -55 -81 -274 0
55 57 83 275 0
-55 -57 -83 -275 0
57 59 85 276 0
-57 -59 -85 -276 0
59 61 87 277 0
-59 -61 -87 -277 0
61 63 89 278 0
-61 -63 -89 -278 0
63 65 91 279 0
-63 -65 -91 -279 0
65 67 93 280 0
-65 -67 -93 -280 0
67 69 95 281 0
-67 -69 -95 -281 0
69 71 97 282 0
-69 -71 -97 -282 0
71 73 99 283 0
-71 -73 -99 -283 0
75 77 101 284 0
-75 -77 -101 -284 0
77 79 103 285 0
-77 -79 -103 -285 0
79 81 105 286 0
-79 -81 -105 -286 0
81 83 107 287 0
-81 -83 -107 -287 0
83 85 109 288 0
-83 -85 -109 -288 0
85 87 111 289 0
-85 -87 -111 -289 0
87 89 113 290 0
-87 -89 -113 -290 0
89 91 115 291 0
-89 -91 -115 -291 0
91 93 117 292 0
-91 -93 -117 -292 0
93 95 119 293 0
-93 -95 -119 -293 0
95 97 121 294 0
-95 -97 -121 -294 0
97 99 123 295 0
-97 -99 -123 -295 0
101 103 125 296 0
-101 -103 -125 -296 0
103 105 127 297 0
-103 -105 -127 -297 0
105 107 129 298 0
-105 -107 -129 -298 0
107 109 131 299 0
-107 -109 -131 -299 0
109 111 133 300 0
-109 -111 -133 -300 0
111 113 135 301 0
-111 -113 -135 -301 0
113 115 137 302 0
-113 -115 -137 -302 0
115 117 139 303 0
-115 -117 -139 -303 0
117 119 141 304 0
-117 -119 -141 -304 0
119 121 143 305 0
-119 -121 -143 -305 0
121 123 145 306 0
-121 -123 -145 -306 0
125 127 147 307 0
-125 -127 -147 -307 0
127 129 149 308 0
-127 -129 -149 -308 0
129 131 151 309 0
-129 -131 -151 -309 0
131 133 153 310 0
-131 -133 -153 -310 0
133 135 155 311 0
-133 -135 -155 -311 0
135 137 157 312 0
-135 -137 -157 -312 0
137 139 159 313 0
-137 -139 -159 -313 0
139 141 161 314 0
-139 -141 -161 -314 0
141 143 163 315 0
-141 -143 -163 -315 0
143 145 165 316 0
-143 -145 -165 -316 0
147 149 167 317 0
-147 -149 -167 -317 0
149 151 169 318 0
-149 -151 -169 -318 0
151 153 171 319 0
-151 -153 -171 -319 0
153 155 173 320 0
-153 -155 -173 -320 0
155 157 175 321 0
-155 -157 -175 -321 0
157 159 177 322 0
-157 -159 -177 -322 0
159 161 179 323 0
-159 -161 -179 -323 0
161 163 181 324 0
-161 -163 -181 -324 0
163 165 183 325 0
-163 -165 -183 -325 0
167 169 185 326 0
-167 -169 -185 -326 0
169 171 187 327 0
-169 -171 -187 -327 0
171 173 189 328 0
-171 -173 -189 -328 0
173 175 191 329 0
-173 -175 -191 -329 0
175 177 193 330 0
-175 -177 -193 -330 0
177 179 195 331 0
-177 -179 -195 -331 0
179 181 197 332 0
-179 -181 -197 -332 0
181 183 199 333 0
-181 -183 -199 -333 0
185 187 201 334 0
-185 -187 -201 -334 0
187 189 203 335 0
-187 -189 -203 -335 0
189 191 205 336 0
-189 -191 -205 -336 0
191 193 207 337 0
-191 -193 -207 -337 0
193 195 209 338 0
-193 -195 -209 -338 0
195 197 211 339 0
-195 -197 -211 -339 0
197 199 213 340 0
-197 -199 -213 -340 0
201 203 215 341 0
-201 -203 -215 -341 0
203 205 217 342 0
-203 -205 -217 -342 0
205 207 219 343 0
-205 -207 -219 -343 0
207 209 221 344 0
-207 -209 -221 -344 0
209 211 223 345 0
-209 -211 -223 -345 0
211 213 225 346 0
-211 -213 -225 -346 0
215 217 227 347 0
-215 -217 -227 -347 0
217 219 229 348 0
-217 -219 -229 -348 0
219 221 231 349 0
-219 -221 -231 -349 0
221 223 233 350 0
-221 -223 -233 -350 0
223 225 235 351 0
-223 -225 -235 -351 0
227 229 237 352 0
-227 -229 -237 -352 0
229 231 239 353 0
-229 -231 -239 -353 0
231 233 241 354 0
-231 -233 -241 -354 0
233 235 243 355 0
-233 -235 -243 -355 0
237 239 245 356 0
-237 -239 -245 -356 0
239 241 247 357 0
-239 -241 -247 -357 0
241 243 249 358 0
-241 -243 -249 -358 0
245 247 251 359 0
-245 -247 -251 -359 0
247 249 253 360 0
-247 -249 -253 -360 0
251 253 255 361 0
-251 -253 -255 -361 0
257 258 271 362 0
-257 -258 -271 -362 0
258 259 272 363 0
-258 -259 -272 -363 0
259 260 273 364 0
-259 -260 -273 -364 0
260 261 274 365 0
-260 -261 -274 -365 0
261 262 275 366 0
-261 -262 -275 -366 0
262 263 276 367 0
-262 -263 -276 -367 0
263 264 277 368 0
-263 -264 -277 -368 0
264 265 278 369 0
-264 -265 -278 -369 0
265 266 279 370 0
-265 -266 -279 -370 0
266 267 280 371 0
-266 -267 -280 -371 0
267 268 281 372 0
-267 -268 -281 -372 0
268 269 282 373 0
-268 -269 -282 -373 0
269 270 283 374 0
-269 -270 -283 -374 0
271 272 284 375 0
-271 -272 -284 -375 0
272 273 285 376 0
-272 -273 -285 -376 0
273 274 286 377 0
-273 -274 -286 -377 0
274 275 287 378 0
-274 -275 -287 -378 0
275 276 288 379 0
-275 -276 -288 -379 0
276 277 289 380 0
-276 -277 -289 -380 0
277 278 290 381 0
-277 -278 -290 -381 0
278 279 291 382 0
-278 -279 -291 -382 0
279 280 292 383 0
-279 -280 -292 -383 0
280 281 293 384 0
-280 -281 -293 -384 0
281 282 294 385 0
-281 -282 -294 -385 0
282 283 295 386 0
-282 -283 -295 -386 0
284 285 296 387 0
-284 -285 -296 -387 0
285 286 297 388 0
-285 -286 -297 -388 0
286 287 298 389 0
-286 -287 -298 -389 0
287 288 299 390 0
-287 -288 -299 -390 0
288 289 300 391 0
-288 -289 -300 -391 0
289 290 301 392 0
-289 -290 -301 -392 0
290 291 302 393 0
-290 -291 -302 -393 0
291 292 303 394 0
-291 -292 -303 -394 0
292 293 304 395 0
-292 -293 -304 -395 0
293 294 305 396 0
-293 -294 -305 -396 0
294 295 306 397 0
-294 -295 -306 -397 0
296 297 307 398 0
-296 -297 -307 -398 0
297 298 308 399 0
-297 -298 -308 -399 0
298 299 309 400 0
-298 -299 -309 -400 0
299 300 310 401 0
-299 -300 -310 -401 0
300 301 311 402 0
-300 -301 -311 -402 0
301 302 312 403 0
-301 -302 -312 -403 0
302 303 313 404 0
-302 -303 -313 -404 0
303 304 314 405 0
-303 -304 -314 -405 0
304 305 315 406 0
-304 -305 -315 -406 0
305 306 316 407 0
-305 -306 -316 -407 0
307 308 317 408 0
-307 -308 -317 -408 0
308 309 318 409 0
-308 -309 -318 -409 0
309 310 319 410 0
-309 -310 -319 -410 0
310 311 320 411 0
-310 -311 -320 -411 0
311 312 321 412 0
-311 -312 -321 -412 0
312 313 322 413 0
-312 -313 -322 -413 0
313 314 323 414 0
-313 -314 -323 -414 0
314 315 324 415 0
-314 -315 -324 -415 0
315 316 325 416 0
-315 -316 -325 -416 0
317 318 326 417 0
-317 -318 -326 -417 0
318 319 327 418 0
-318 -319 -327 -418 0
319 320 328 419 0
-319 -320 -328 -419 0
320 321 329 420 0
-320 -321 -329 -420 0
321 322 330 421 0
-321 -322 -330 -421 0
322 323 331 422 0
-322 -323 -331 -422 0
323 324 332 423 0
-323 -324 -332 -423 0
324 325 333 424 0
-324 -325 -333 -424 0
326 327 334 425 0
-326 -327 -334 -425 0
327 328 335 426 0
-327 -328 -335 -426 0
328 329 336 427 0
-328 -329 -336 -427 0
329 330 337 428 0
-329 -330 -337 -428 0
330 331 338 429 0
-330 -331 -338 -429 0
331 332 339 430 0
-331 -332 -339 -430 0
332 333 340 431 0
-332 -333 -340 -431 0
334 335 341 432 0
-334 -335 -341 -432 0
335 336 342 433 0
-335 -336 -342 -433 0
336 337 343 434 0
-336 -337 -343 -434 0
337 338 344 435 0
-337 -338 -344 -435 0
338 339 345 436 0
-338 -339 -345 -436 0
339 340 346 437 0
-339 -340 -346 -437 0
341 342 347 438 0
-341 -342 -347 -438 0
342 343 348 439 0
-342 -343 -348 -439 0
343 344 349 440 0
-343 -344 -349 -440 0
344 345 350 441 0
-344 -345 -350 -441 0
345 346 351 442 0
-345 -346 -351 -442 0
347 348 352 443 0
-347 -348 -352 -443 0
348 349 353 444 0
-348 -349 -353 -444 0
349 350 354 445 0
-349 -350 -354 -445 0
350 351 355 446 0
-350 -351 -355 -446 0
352 353 356 447 0
-352 -353 -356 -447 0
353 354 357 448 0
-353 -354 -357 -448 0
354 355 358 449 0
-354 -355 -358 -449 0
356 357 359 450 0
-356 -357 -359 -450 0
357 358 360 451 0
-357 -358 -360 -451 0
359 360 361 452 0
-359 -360 -361 -452 0
362 363 375 453 0
-362 -363 -375 -453 0
363 364 376 454 0
-363 -364 -376 -454 0
364 365 377 455 0
-364 -365 -377 -455 0
365 366 378 456 0
-365 -366 -378 -456 0
366 367 379 457 0
-366 -367 -379 -457 0
367 368 380 458 0
-367 -368 -380 -458 0
368 369 381 459 0
-368 -369 -381 -459 0
369 370 382 460 0
-369 -370 -382 -460 0
370 371 383 461 0
-370 -371 -383 -461 0
371 372 384 462 0
-371 -372 -384 -462 0
372 373 385 463 0
-372 -373 -385 -463 0
373 374 386 464 0
-373 -374 -386 -464 0
375 376 387 465 0
-375 -376 -387 -465 0
376 377 388 466 0
-376 -377 -388 -466 0
377 378 389 467 0
-377 -378 -389 -467 0
378 379 390 468 0
-378 -379 -390 -468 0
379 380 391 469 0
-379 -380 -391 -469 0
380 381 392 470 0
-380 -381 -392 -470 0
381 382 393 471 0
-381 -382 -393 -471 0
382 383 394 472 0
-382 -383 -394 -472 0
383 384 395 473 0
-383 -384 -395 -473 0
384 385 396 474 0
-384 -385 -396 -474 0
385 386 397 475 0
-385 -386 -397 -475 0
387 388 398 476 0
-387 -388 -398 -476 0
388 389 399 477 0
-388 -389 -399 -477 0
389 390 400 478 0
-389 -390 -400 -478 0
390 391 401 479 0
-390 -391 -401 -479 0
391 392 402 480 0
-391 -392 -402 -480 0
392 393 403 481 0
-392 -393 -403 -481 0
393 394 404 482 0
-393 -394 -404 -482 0
394 395 405 483 0
-394 -395 -405 -483 0
395 396 406 484 0
-395 -396 -406 -484 0
396 397 407 485 0
-396 -397 -407 -485 0
398 399 408 486 0
-398 -399 -408 -486 0
399 400 409 487 0
-399 -400 -409 -487 0
400 401 410 488 0
-400 -401 -410 -488 0
401 402 411 489 0
-401 -402 -411 -489 0
402 403 412 490 0
-402 -403 -412 -490 0
403 404 413 491 0
-403 -404 -413 -491 0
404 405 414 492 0
-404 -405 -414 -492 0
405 406 415 493 0
-405 -406 -415 -493 0
406 407 416 494 0
-406 -407 -416 -494 0
408 409 417 495 0
-408 -409 -417 -495 0
409 410 418 496 0
-409 -410 -418 -496 0
410 411 419 497 0
-410 -411 -419 -497 0
411 412 420 498 0
-411 -412 -420 -498 0
412 413 421 499 0
-412 -413 -421 -499 0
413 414 422 500 0
-413 -414 -422 -500 0
414 415 423 501 0
-414 -415 -423 -501 0
415 416 424 502 0
-415 -416 -424 -502 0
417 418 425 503 0
-417 -418 -425 -503 0
418 419 426 504 0
-418 -419 -426 -504 0
419 420 427 505 0
-419 -420 -427 -505 0
420 421 428 506 0
-420 -421 -428 -506 0
421 422 429 507 0
-421 -422 -429 -507 0
422 423 430 508 0
-422 -423 -430 -508 0
423 424 431 509 0
-423 -424 -431 -509 0
425 426 432 510 0
-425 -426 -432 -510 0
426 427 433 511 0
-426 -427 -433 -511 0
427 428 434 512 0
-427 -428 -434 -512 0
428 429 435 513 0
-428 -429 -435 -513 0
429 430 436 514 0
-429 -430 -436 -514 0
430 431 437 515 0
-430 -431 -437 -515 0
432 433 438 516 0
-432 -433 -438 -516 0
433 434 439 517 0
-433 -434 -439 -517 0
434 435 440 518 0
-434 -435 -440 -518 0
435 436 441 519 0
-435 -436 -441 -519 0
436 437 442 520 0
-436 -437 -442 -520 0
438 439 443 521 0
-438 -439 -443 -521 0
439 440 444 522 0
-439 -440 -444 -522 0
440 441 445 523 0
-440 -441 -445 -523 0
441 442 446 524 0
-441 -442 -446 -524 0
443 444 447 525 0
-443 -444 -447 -525 0
444 445 448 526 0
-444 -445 -448 -526 0
445 446 449 527 0
-445 -446 -449 -527 0
447 448 450 528 0
-447 -448 -450 -528 0
448 449 451 529 0
-448 -449 -451 -529 0
450 451 452 530 0
-450 -451 -452 -530 0
453 454 465 531 0
-453 -454 -465 -531 0
454 455 466 532 0
-454 -455 -466 -532 0
455 456 467 533 0
-455 -456 -467 -533 0
456 457 468 534 0
-456 -457 -468 -534 0
457 458 469 535 0
-457 -458 -469 -535 0
458 459 470 536 0
-458 -459 -470 -536 0
459 460 471 537 0
-459 -460 -471 -537 0
460 461 472 538 0
-460 -461 -472 -538 0
461 462 473 539 0
-461 -462 -473 -539 0
462 463 474 540 0
-462 -463 -474 -540 0
463 464 475 541 0
-463 -464 -475 -541 0
465 466 476 542 0
-465 -466 -476 -542 0
466 467 477 543 0
-466 -467 -477 -543 0
467 468 478 544 0
-467 -468 -478 -544 0
468 469 479 545 0
-468 -469 -479 -545 0
469 470 480 546 0
-469 -470 -480 -546 0
470 471 481 547 0
-470 -471 -481 -547 0
471 472 482 548 0
-471 -472 -482 -548 0
472 473 483 549 0
-472 -473 -483 -549 0
473 474 484 550 0
-473 -474 -484 -550 0
474 475 485 551 0
-474 -475 -485 -551 0
476 477 486 552 0
-476 -477 -486 -552 0
477 478 487 553 0
-477 -478 -487 -553 0
478 479 488 554 0
-478 -479 -488 -554 0
479 480 489 555 0
-479 -480 -489 -555 0
480 481 490 556 0
-480 -481 -490 -556 0
481 482 491 557 0
-481 -482 -491 -557 0
482 483 492 558 0
-482 -483 -492 -558 0
483 484 493 559 0
-483 -484 -493 -559 0
484 485 494 560 0
-484 -485 -494 -560 0
486 487 495 561 0
-486 -487 -495 -561 0
487 488 496 562 0
-487 -488 -496 -562 0
488 489 497 563 0
-488 -489 -497 -563 0
489 490 498 564 0
-489 -490 -498 -564 0
490 491 499 565 0
-490 -491 -499 -565 0
491 492 500 566 0
-491 -492 -500 -566 0
492 493 501 567 0
-492 -493 -501 -567 0
493 494 502 568 0
-493 -494 -502 -568 0
495 496 503 569 0
-495 -496 -503 -569 0
496 497 504 570 0
-496 -497 -504 -570 0
497 498 505 571 0
-497 -498 -505 -571 0
498 499 506 572 0
-498 -499 -506 -572 0
499 500 507 573 0
-499 -500 -507 -573 0
500 501 508 574 0
-500 -501 -508 -574 0
501 502 509 575 0
-501 -502 -509 -575 0
503 504 510 576 0
-503 -504 -510 -576 0
504 505 511 577 0
-504 -505 -511 -577 0
505 506 512 578 0
-505 -506 -512 -578 0
506 507 513 579 0
-506 -507 -513 -579 0
507 508 514 580 0
-507 -508 -514 -580 0
508 509 515 581 0
-508 -509 -515 -581 0
510 511 516 582 0
-510 -511 -516 -582 0
511 512 517 583 0
-511 -512 -517 -583 0
512 513 518 584 0
-512 -513 -518 -584 0
513 514 519 585 0
-513 -514 -519 -585 0
514 515 520 586 0
-514 -515 -520 -586 0
516 517 521 587 0
-516 -517 -521 -587 0
517 518 522 588 0
-517 -518 -522 -588 0
518 519 523 589 0
-518 -519 -523 -589 0
519 520 524 590 0
-519 -520 -524 -590 0
521 522 525 591 0
-521 -522 -525 -591 0
522 523 526 592 0
-522 -523 -526 -592 0
523 524 527 593 0
-523 -524 -527 -593 0
525 526 528 594 0
-525 -526 -528 -594 0
526 527 529 595 0
-526 -527 -529 -595 0
528 529 530 596 0
-528 -529 -530 -596 0
531 532 542 597 0
-531 -532 -542 -597 0
532 533 543 598 0
-532 -533 -543 -598 0
533 534 544 599 0
-533 -534 -544 -599 0
534 535 545 600 0
-534 -535 -545 -600 0
535 536 546 601 0
-535 -536 -546 -601 0
536 537 547 602 0
-536 -537 -547 -602 0
537 538 548 603 0
-537 -538 -548 -603 0
538 539 549 604 0
-538 -539 -549 -604 0
539 540 550 605 0
-539 -540 -550 -605 0
540 541 551 606 0
-540 -541 -551 -606 0
542 543 552 607 0
-542 -543 -552 -607 0
543 544 553 608 0
-543 -544 -553 -608 0
544 545 554 609 0
-544 -545 -554 -609 0
545 546 555 610 0
-545 -546 -555 -610 0
546 547 556 611 0
-546 -547 -556 -611 0
547 548 557 612 0
-547 -548 -557 -612 0
548 549 558 613 0
-548 -549 -558 -613 0
549 550 559 614 0
-549 -550 -559 -614 0
550 551 560 615 0
-550 -551 -560 -615 0
552 553 561 616 0
-552 -553 -561 -616 0
553 554 562 617 0
-553 -554 -562 -617 0
554 555 563 618 0
-554 -555 -563 -618 0
555 556 564 619 0
-555 -556 -564 -619 0
556 557 565 620 0
-556 -557 -565 -620 0
557 558 566 621 0
-557 -558 -566 -621 0
558 559 567 622 0
-558 -559 -567 -622 0
559 560 568 623 0
-559 -560 -568 -623 0
561 562 569 624 0
-561 -562 -569 -624 0
562 563 570 625 0
-562 -563 -570 -625 0
563 564 571 626 0
-563 -564 -571 -626 0
564 565 572 627 0
-564 -565 -572 -627 0
565 566 573 628 0
-565 -566 -573 -628 0
566 567 574 629 0
-566 -567 -574 -629 0
567 568 575 630 0
-567 -568 -575 -630 0
569 570 576 631 0
-569 -570 -576 -631 0
570 571 577 632 0
-570 -571 -577 -632 0
571 572 578 633 0
-571 -572 -578 -633 0
572 573 579 634 0
-572 -573 -579 -634 0
573 574 580 635 0
-573 -574 -580 -635 0
574 575 581 636 0
-574 -575 -581 -636 0
576 577 582 637 0
-576 -577 -582 -637 0
577 578 583 638 0
-577 -578 -583 -638 0
578 579 584 639 0
-578 -579 -584 -639 0
579 580 585 640 0
-579 -580 -585 -640 0
580 581 586 641 0
-580 -581 -586 -641 0
582 583 587 642 0
-582 -583 -587 -642 0
583 584 588 643 0
-583 -584 -588 -643 0
584 585 589 644 0
-584 -585 -589 -644 0
585 586 590 645 0
-585 -586 -590 -645 0
587 588 591 646 0
-587 -588 -591 -646 0
588 589 592 647 0
-588 -589 -592 -647 0
589 590 593 648 0
-589 -590 -593 -648 0
591 592 594 649 0
-591 -592 -594 -649 0
592 593 595 650 0
-592 -593 -595 -650 0
594 595 596 651 0
-594 -595 -596 -651 0
597 598 607 652 0
-597 -598 -607 -652 0
598 599 608 653 0
-598 -599 -608 -653 0
599 600 609 654 0
-599 -600 -609 -654 0
600 601 610 655 0
-600 -601 -610 -655 0
601 602 611 656 0
-601 -602 -611 -656 0
602 603 612 657 0
-602 -603 -612 -657 0
603 604 613 658 0
-603 -604 -613 -658 0
604 605 614 659 0
-604 -605 -614 -659 0
605 606 615 660 0
-605 -606 -615 -660 0
607 608 616 661 0
-607 -608 -616 -661 0
608 609 617 662 0
-608 -609 -617 -662 0
609 610 618 663 0
-609 -610 -618 -663 0
610 611 619 664 0
-610 -611 -619 -664 0
611 612 620 665 0
-611 -612 -620 -665 0
612 613 621 666 0
-612 -613 -621 -666 0
613 614 622 667 0
-613 -614 -622 -667 0
614 615 623 668 0
-614 -615 -623 -668 0
616 617 624 669 0
-616 -617 -624 -669 0
617 618 625 670 0
-617 -618 -625 -670 0
618 619 626 671 0
-618 -619 -626 -671 0
619 620 627 672 0
-619 -620 -627 -672 0
620 621 628 673 0
-620 -621 -628 -673 0
621 622 629 674 0
-621 -622 -629 -674 0
622 623 630 675 0
-622 -623 -630 -675 0
624 625 631 676 0
-624 -625 -631 -676 0
625 626 632 677 0
-625 -626 -632 -677 0
626 627 633 678 0
-626 -627 -633 -678 0
627 628 634 679 0
-627 -628 -634 -679 0
628 629 635 680 0
-628 -629 -635 -680 0
629 630 636 681 0
-629 -630 -636 -681 0
631 632 637 682 0
-631 -632 -637 -682 0
632 633 638 683 0
-632 -633 -638 -683 0
633 634 639 684 0
-633 -634 -639 -684 0
634 635 640 685 0
-634 -635 -640 -685 0
635 636 641 686 0
-635 -636 -641 -686 0
637 638 642 687 0
-637 -638 -642 -687 0
638 639 643 688 0
-638 -639 -643 -688 0
639 640 644 689 0
-639 -640 -644 -689 0
640 641 645 690 0
-640 -641 -645 -690 0
642 643 646 691 0
-642 -643 -646 -691 0
643 644 647 692 0
-643 -644 -647 -692 0
644 645 648 693 0
-644 -645 -648 -693 0
646 647 649 694 0
-646 -647 -649 -694 0
647 648 650 695 0
-647 -648 -650 -695 0
649 650 651 696 0
-649 -650 -651 -696 0
652 653 661 697 0
-652 -653 -661 -697 0
653 654 662 698 0
-653 -654 -662 -698 0
654 655 663 699 0
-654 -655 -663 -699 0
655 656 664 700 0
-655 -656 -664 -700 0
656 657 665 701 0
-656 -657 -665 -701 0
657 658 666 702 0
-657 -658 -666 -702 0
658 659 667 703 0
-658 -659 -667 -703 0
659 660 668 704 0
-659 -660 -668 -704 0
661 662 669 705 0
-661 -662 -669 -705 0
662 663 670 706 0
-662 -663 -670 -706 0
663 664 671 707 0
-663 -664 -671 -707 0
664 665 672 708 0
-664 -665 -672 -708 0
665 666 673 709 0
-665 -666 -673 -709 0
666 667 674 710 0
-666 -667 -674 -710 0
667 668 675 711 0
-667 -668 -675 -711 0
669 670 676 712 0
-669 -670 -676 -712 0
670 671 677 713 0
-670 -671 -677 -713 0
671 672 678 714 0
-671 -672 -678 -714 0
672 673 679 715 0
-672 -673 -679 -715 0
673 674 680 716 0
-673 -674 -680 -716 0
674 675 681 717 0
-674 -675 -681 -717 0
676 677 682 718 0
-676 -677 -682 -718 0
677 678 683 719 0
-677 -678 -683 -719 0
678 679 684 720 0
-678 -679 -684 -720 0
679 680 685 721 0
-679 -680 -685 -721 0
680 681 686 722 0
-680 -681 -686 -722 0
682 683 687 723 0
-682 -683 -687 -723 0
683 684 688 724 0
-683 -684 -688 -724 0
684 685 689 725 0
-684 -685 -689 -725 0
685 686 690 726 0
-685 -686 -690 -726 0
687 688 691 727 0
-687 -688 -691 -727 0
688 689 692 728 0
-688 -689 -692 -728 0
689 690 693 729 0
-689 -690 -693 -729 0
691 692 694 730 0
-691 -692 -694 -730 0
692 693 695 731 0
-692 -693 -695 -731 0
694 695 696 732 0
-694 -695 -696 -732 0
697 698 705 733 0
-697 -698 -705 -733 0
698 699 706 734 0
-698 -699 -706 -734 0
699 700 707 735 0
-699 -700 -707 -735 0
700 701 708 736 0
-700 -701 -708 -736 0
701 702 709 737 0
-701 -702 -709 -737 0
702 703 710 738 0
-702 -703 -710 -738 0
703 704 711 739 0
-703 -704 -711 -739 0
705 706 712 740 0
-705 -706 -712 -740 0
706 707 713 741 0
-706 -707 -713 -741 0
707 708 714 742 0
-707 -708 -714 -742 0
708 709 715 743 0
-708 -709 -715 -743 0
709 710 716 744 0
-709 -710 -716 -744 0
710 711 717 745 0
-710 -711 -717 -745 0
712 713 718 746 0
-712 -713 -718 -746 0
713 714 719 747 0
-713 -714 -719 -747 0
714 715 720 748 0
-714 -715 -720 -748 0
715 716 721 749 0
-715 -716 -721 -749 0
716 717 722 750 0
-716 -717 -722 -750 0
718 719 723 751 0
-718 -719 -723 -751 0
719 720 724 752 0
-719 -720 -724 -752 0
720 721 725 753 0
-720 -721 -725 -753 0
721 722 726 754 0
-721 -722 -726 -754 0
723 724 727 755 0
-723 -724 -727 -755 0
724 725 728 756 0
-724 -725 -728 -756 0
725 726 729 757 0
-725 -726 -729 -757 0
727 728 730 758 0
-727 -728 -730 -758 0
728 729 731 759 0
-728 -729 -731 -759 0
730 731 732 760 0
-730 -731 -732 -760 0
733 734 740 761 0
-733 -734 -740 -761 0
734 735 741 762 0
-734 -735 -741 -762 0
735 736 742 763 0
-735 -736 -742 -763 0
736 737 743 764 0
-736 -737 -743 -764 0
737 738 744 765 0
-737 -738 -744 -765 0
738 739 745 766 0
-738 -739 -745 -766 0
740 741 746 767 0
-740 -741 -746 -767 0
741 742 747 768 0
-741 -742 -747 -768 0
742 743 748 769 0
-742 -743 -748 -769 0
743 744 749 770 0
-743 -744 -749 -770 0
744 745 750 771 0
-744 -745 -750 -771 0
746 747 751 772 0
-746 -747 -751 -772 0
747 748 752 773 0
-747 -748 -752 -773 0
748 749 753 774 0
-748 -749 -753 -774 0
749 750 754 775 0
-749 -750 -754 -775 0
751 752 755 776 0
-751 -752 -755 -776 0
752 753 756 777 0
-752 -753 -756 -777 0
753 754 757 778 0
-753 -754 -757 -778 0
755 756 758 779 0
-755 -756 -758 -779 0
756 757 759 780 0
-756 -757 -759 -780 0
758 759 760 781 0
-758 -759 -760 -781 0
761 762 767 782 0
-761 -762 -767 -782 0
762 763 768 783 0
-762 -763 -768 -783 0
763 764 769 784 0
-763 -764 -769 -784 0
764 765 770 785 0
-764 -765 -770 -785 0
765 766 771 786 0
-765 -766 -771 -786 0
767 768 772 787 0
-767 -768 -772 -787 0
768 769 773 788 0
-768 -769 -773 -788 0
769 770 774 789 0
-769 -770 -774 -789 0
770 771 775 790 0
-770 -771 -775 -790 0
772 773 776 791 0
-772 -773 -776 -791 0
773 774 777 792 0
-773 -774 -777 -792 0
774 775 778 793 0
-774 -775 -778 -793 0
776 777 779 794 0
-776 -777 -779 -794 0
777 778 780 795 0
-777 -778 -780 -795 0
779 780 781 796 0
-779 -780 -781 -796 0
782 783 787 797 0
-782 -783 -787 -797 0
783 784 788 798 0
-783 -784 -788 -798 0
784 785 789 799 0
-784 -785 -789 -799 0
785 786 790 800 0
-785 -786 -790 -800 0
787 788 791 801 0
-787 -788 -791 -801 0
788 789 792 802 0
-788 -789 -792 -802 0
789 790 793 803 0
-789 -790 -793 -803 0
791 792 794 804 0
-791 -792 -794 -804 0
792 793 795 805 0
-792 -793 -795 -805 0
794 795 796 806 0
-794 -795 -796 -806 0
797 798 801 807 0
-797 -798 -801 -807 0
798 799 802 808 0
-798 -799 -802 -808 0
799 800 803 809 0
-799 -800 -803 -809 0
801 802 804 810 0
-801 -802 -804 -810 0
802 803 805 811 0
-802 -803 -805 -811 0
804 805 806 812 0
-804 -805 -806 -812 0
807 808 810 813 0
-807 -808 -810 -813 0
808 809 811 814 0
-808 -809 -811 -814 0
810 811 812 815 0
-810 -811 -812 -815 0
813 814 815 816 0
-813 -814 -815 -816 0
4 7 48 257 0
-4 -7 -48 -257 0
3 10 50 258 0
-3 -10 -50 -258 0
7 13 52 259 0
-7 -13 -52 -259 0
10 16 54 260 0
-10 -16 -54 -260 0
13 19 56 261 0
-13 -19 -56 -261 0
16 22 58 262 0
-16 -22 -58 -262 0
19 25 60 263 0
-19 -25 -60 -263 0
22 28 62 264 0
-22 -28 -62 -264 0
25 31 64 265 0
-25 -31 -64 -265 0
28 34 66 266 0
-28 -34 -66 -266 0
31 37 68 267 0
-31 -37 -68 -267 0
34 40 70 268 0
-34 -40 -70 -268 0
37 43 72 269 0
-37 -43 -72 -269 0
40 46 74 270 0
-40 -46 -74 -270 0
2 9 76 271 0
-2 -9 -76 -271 0
6 12 78 272 0
-6 -12 -78 -272 0
9 15 80 273 0
-9 -15 -80 -273 0
12 18 82 274 0
-12 -18 -82 -274 0
15 21 84 275 0
-15 -21 -84 -275 0
18 24 86 276 0
-18 -24 -86 -276 0
21 27 88 277 0
-21 -27 -88 -277 0
24 30 90 278 0
-24 -30 -90 -278 0
27 33 92 279 0
-27 -33 -92 -279 0
30 36 94 280 0
-30 -36 -94 -280 0
33 39 96 281 0
-33 -39 -96 -281 0
36 42 98 282 0
-36 -42 -98 -282 0
39 45 100 283 0
-39 -45 -100 -283 0
48 52 102 284 0
-48 -52 -102 -284 0
50 54 104 285 0
-50 -54 -104 -285 0
52 56 106 286 0
-52 -56 -106 -286 0
54 58 108 287 0
-54 -58 -108 -287 0
56 60 110 288 0
-56 -60 -110 -288 0
58 62 112 289 0
-58 -62 -112 -289 0
60 64 114 290 0
-60 -64 -114 -290 0
62 66 116 291 0
-62 -66 -116 -291 0
64 68 118 292 0
-64 -68 -118 -292 0
66 70 120 293 0
-66 -70 -120 -293 0
68 72 122 294 0
-68 -72 -122 -294 0
70 74 124 295 0
-70 -74 -124 -295 0
76 80 126 296 0
-76 -80 -126 -296 0
78 82 128 297 0
-78 -82 -128 -297 0
80 84 130 298 0
-80 -84 -130 -298 0
82 86 132 299 0
-82 -86 -132 -299 0
84 88 134 300 0
-84 -88 -134 -300 0
86 90 136 301 0
-86 -90 -136 -301 0
88 92 138 302 0
-88 -92 -138 -302 0
90 94 140 303 0
-90 -94 -140 -303 0
92 96 142 304 0
-92 -96 -142 -304 0
94 98 144 305 0
-94 -98 -144 -305 0
96 100 146 306 0
-96 -100 -146 -306 0
102 106 148 307 0
-102 -106 -148 -307 0
104 108 150 308 0
-104 -108 -150 -308 0
106 110 152 309 0
-106 -110 -152 -309 0
108 112 154 310 0
-108 -112 -154 -310 0
110 114 156 311 0
-110 -114 -156 -311 0
112 116 158 312 0
-112 -116 -158 -312 0
114 118 160 313 0
-114 -118 -160 -313 0
116 120 162 314 0
-116 -120 -162 -314 0
118 122 164 315 0
-118 -122 -164 -315 0
120 124 166 316 0
-120 -124 -166 -316 0
126 130 168 317 0
-126 -130 -168 -317 0
128 132 170 318 0
-128 -132 -170 -318 0
130 134 172 319 0
-130 -134 -172 -319 0
132 136 174 320 0
-132 -136 -174 -320 0
134 138 176 321 0
-134 -138 -176 -321 0
136 140 178 322 0
-136 -140 -178 -322 0
138 142 180 323 0
-138 -142 -180 -323 0
140 144 182 324 0
-140 -144 -182 -324 0
142 146 184 325 0
-142 -146 -184 -325 0
148 152 186 326 0
-148 -152 -186 -326 0
150 154 188 327 0
-150 -154 -188 -327 0
152 156 190 328 0
-152 -156 -190 -328 0
154 158 192 329 0
-154 -158 -192 -329 0
156 160 194 330 0
-156 -160 -194 -330 0
158 162 196 331 0
-158 -162 -196 -331 0
160 164 198 332 0
-160 -164 -198 -332 0
162 166 200 333 0
-162 -166 -200 -333 0
168 172 202 334 0
-168 -172 -202 -334 0
170 174 204 335 0
-170 -174 -204 -335 0
172 176 206 336 0
-172 -176 -206 -336 0
174 178 208 337 0
-174 -178 -208 -337 0
176 180 210 338 0
-176 -180 -210 -338 0
178 182 212 339 0
-178 -182 -212 -339 0
180 184 214 340 0
-180 -184 -214 -340 0
186 190 216 341 0
-186 -190 -216 -341 0
188 192 218 342 0
-188 -192 -218 -342 0
190 194 220 343 0
-190 -194 -220 -343 0
192 196 222 344 0
-192 -196 -222 -344 0
194 198 224 345 0
-194 -198 -224 -345 0
196 200 226 346 0
-196 -200 -226 -346 0
202 206 228 347 0
-202 -206 -228 -347 0
204 208 230 348 0
-204 -208 -230 -348 0
206 210 232 349 0
-206 -210 -232 -349 0
208 212 234 350 0
-208 -212 -234 -350 0
210 214 236 351 0
-210 -214 -236 -351 0
216 220 238 352 0
-216 -220 -238 -352 0
218 222 240 353 0
-218 -222 -240 -353 0
220 224 242 354 0
-220 -224 -242 -354 0
222 226 244 355 0
-222 -226 -244 -355 0
228 232 246 356 0
-228 -232 -246 -356 0
230 234 248 357 0
-230 -234 -248 -357 0
232 236 250 358 0
-232 -236 -250 -358 0
238 242 252 359 0
-238 -242 -252 -359 0
240 244 254 360 0
-240 -244 -254 -360 0
246 250 256 361 0
-246 -250 -256 -361 0
1 8 75 362 0
-1 -8 -75 -362 0
5 11 77 363 0
-5 -11 -77 -363 0
8 14 79 364 0
-8 -14 -79 -364 0
11 17 81 365 0
-11 -17 -81 -365 0
14 20 83 366 0
-14 -20 -83 -366 0
17 23 85 367 0
-17 -23 -85 -367 0
20 26 87 368 0
-20 -26 -87 -368 0
23 29 89 369 0
-23 -29 -89 -369 0
26 32 91 370 0
-26 -32 -91 -370 0
29 35 93 371 0
-29 -35 -93 -371 0
32 38 95 372 0
-32 -38 -95 -372 0
35 41 97 373 0
-35 -41 -97 -373 0
38 44 99 374 0
-38 -44 -99 -374 0
47 51 101 375 0
-47 -51 -101 -375 0
49 53 103 376 0
-49 -53 -103 -376 0
51 55 105 377 0
-51 -55 -105 -377 0
53 57 107 378 0
-53 -57 -107 -378 0
55 59 109 379 0
-55 -59 -109 -379 0
57 61 111 380 0
-57 -61 -111 -380 0
59 63 113 381 0
-59 -63 -113 -381 0
61 65 115 382 0
-61 -65 -115 -382 0
63 67 117 383 0
-63 -67 -117 -383 0
65 69 119 384 0
-65 -69 -119 -384 0
67 71 121 385 0
-67 -71 -121 -385 0
69 73 123 386 0
-69 -73 -123 -386 0
75 79 125 387 0
-75 -79 -125 -387 0
77 81 127 388 0
-77 -81 -127 -388 0
79 83 129 389 0
-79 -83 -129 -389 0
81 85 131 390 0
-81 -85 -131 -390 0
83 87 133 391 0
-83 -87 -133 -391 0
85 89 135 392 0
-85 -89 -135 -392 0
87 91 137 393 0
-87 -91 -137 -393 0
89 93 139 394 0
-89 -93 -139 -394 0
91 95 141 395 0
-91 -95 -141 -395 0
93 97 143 396 0
-93 -97 -143 -396 0
95 99 145 397 0
-95 -99 -145 -397 0
101 105 147 398 0
-101 -105 -147 -398 0
103 107 149 399 0
-103 -107 -149 -399 0
105 109 151 400 0
-105 -109 -151 -400 0
107 111 153 401 0
-107 -111 -153 -401 0
109 113 155 402 0
-109 -113 -155 -402 0
111 115 157 403 0
-111 -115 -157 -403 0
113 117 159 404 0
-113 -117 -159 -404 0
115 119 161 405 0
-115 -119 -161 -405 0
117 121 163 406 0
-117 -121 -163 -406 0
119 123 165 407 0
-119 -123 -165 -407 0
125 129 167 408 0
-125 -129 -167 -408 0
127 131 169 409 0
-127 -131 -169 -409 0
129 133 171 410 0
-129 -133 -171 -410 0
131 135 173 411 0
-131 -135 -173 -411 0
133 137 175 412 0
-133 -137 -175 -412 0
135 139 177 413 0
-135 -139 -177 -413 0
137 141 179 414 0
-137 -141 -179 -414 0
139 143 181 415 0
-139 -143 -181 -415 0
141 145 183 416 0
-141 -145 -183 -416 0
147 151 185 417 0
-147 -151 -185 -417 0
149 153 187 418 0
-149 -153 -187 -418 0
151 155 189 419 0
-151 -155 -189 -419 0
153 157 191 420 0
-153 -157 -191 -420 0
155 159 193 421 0
-155 -159 -193 -421 0
157 161 195 422 0
-157 -161 -195 -422 0
159 163 197 423 0
-159 -163 -197 -423 0
161 165 199 424 0
-161 -165 -199 -424 0
167 171 201 425 0
-167 -171 -201 -425 0
169 173 203 426 0
-169 -173 -203 -426 0
171 175 205 427 0
-171 -175 -205 -427 0
173 177 207 428 0
-173 -177 -207 -428 0
175 179 209 429 0
-175 -179 -209 -429 0
177 181 211 430 0
-177 -181 -211 -430 0
179 183 213 431 0
-179 -183 -213 -431 0
185 189 215 432 0
-185 -189 -215 -432 0
187 191 217 433 0
-187 -191 -217 -433 0
189 193 219 434 0
-189 -193 -219 -434 0
191 195 221 435 0
-191 -195 -221 -435 0
193 197 223 436 0
-193 -197 -223 -436 0
195 199 225 437 0
-195 -199 -225 -437 0
201 205 227 438 0
-201 -205 -227 -438 0
203 207 229 439 0
-203 -207 -229 -439 0
205 209 231 440 0
-205 -209 -231 -440 0
207 211 233 441 0
-207 -211 -233 -441 0
209 213 235 442 0
-209 -213 -235 -442 0
215 219 237 443 0
-215 -219 -237 -443 0
217 221 239 444 0
-217 -221 -239 -444 0
219 223 241 445 0
-219 -223 -241 -445 0
221 225 243 446 0
-221 -225 -243 -446 0
227 231 245 447 0
-227 -231 -245 -447 0
229 233 247 448 0
-229 -233 -247 -448 0
231 235 249 449 0
-231 -235 -249 -449 0
237 241 251 450 0
-237 -241 -251 -450 0
239 243 253 451 0
-239 -243 -253 -451 0
245 249 255 452 0
-245 -249 -255 -452 0
257 259 284 453 0
-257 -259 -284 -453 0
258 260 285 454 0
-258 -260 -285 -454 0
259 261 286 455 0
-259 -261 -286 -455 0
260 262 287 456 0
-260 -262 -287 -456 0
261 263 288 457 0
-261 -263 -288 -457 0
262 264 289 458 0
-262 -264 -289 -458 0
263 265 290 459 0
-263 -265 -290 -459 0
264 266 291 460 0
-264 -266 -291 -460 0
265 267 292 461 0
-265 -267 -292 -461 0
266 268 293 462 0
-266 -268 -293 -462 0
267 269 294 463 0
-267 -269 -294 -463 0
268 270 295 464 0
-268 -270 -295 -464 0
271 273 296 465 0
-271 -273 -296 -465 0
272 274 297 466 0
-272 -274 -297 -466 0
273 275 298 467 0
-273 -275 -298 -467 0
274 276 299 468 0
-274 -276 -299 -468 0
275 277 300 469 0
-275 -277 -300 -469 0
276 278 301 470 0
-276 -278 -301 -470 0
277 279 302 471 0
-277 -279 -302 -471 0
278 280 303 472 0
-278 -280 -303 -472 0
279 281 304 473 0
-279 -281 -304 -473 0
280 282 305 474 0
-280 -282 -305 -474 0
281 283 306 475 0
-281 -283 -306 -475 0
284 286 307 476 0
-284 -286 -307 -476 0
285 287 308 477 0
-285 -287 -308 -477 0
286 288 309 478 0
-286 -288 -309 -478 0
287 289 310 479 0
-287 -289 -310 -479 0
288 290 311 480 0
-288 -290 -311 -480 0
289 291 312 481 0
-289 -291 -312 -481 0
290 292 313 482 0
-290 -292 -313 -482 0
291 293 314 483 0
-291 -293 -314 -483 0
292 294 315 484 0
-292 -294 -315 -484 0
293 295 316 485 0
-293 -295 -316 -485 0
296 298 317 486 0
-296 -298 -317 -486 0
297 299 318 487 0
-297 -299 -318 -487 0
298 300 319 488 0
-298 -300 -319 -488 0
299 301 320 489 0
-299 -301 -320 -489 0
300 302 321 490 0
-300 -302 -321 -490 0
301 303 322 491 0
-301 -303 -322 -491 0
302 304 323 492 0
-302 -304 -323 -492 0
303 305 324 493 0
-303 -305 -324 -493 0
304 306 325 494 0
-304 -306 -325 -494 0
307 309 326 495 0
-307 -309 -326 -495 0
308 310 327 496 0
-308 -310 -327 -496 0
309 311 328 497 0
-309 -311 -328 -497 0
310 312 329 498 0
-310 -312 -329 -498 0
311 313 330 499 0
-311 -313 -330 -499 0
312 314 331 500 0
-312 -314 -331 -500 0
313 315 332 501 0
-313 -315 -332 -501 0
314 316 333 502 0
-314 -316 -333 -502 0
317 319 334 503 0
-317 -319 -334 -503 0
318 320 335 504 0
-318 -320 -335 -504 0
319 321 336 505 0
-319 -321 -336 -505 0
320 322 337 506 0
-320 -322 -337 -506 0
321 323 338 507 0
-321 -323 -338 -507 0
322 324 339 508 0
-322 -324 -339 -508 0
323 325 340 509 0
-323 -325 -340 -509 0
326 328 341 510 0
-326 -328 -341 -510 0
327 329 342 511 0
-327 -329 -342 -511 0
328 330 343 512 0
-328 -330 -343 -512 0
329 331 344 513 0
-329 -331 -344 -513 0
330 332 345 514 0
-330 -332 -345 -514 0
331 333 346 515 0
-331 -333 -346 -515 0
334 336 347 516 0
-334 -336 -347 -516 0
335 337 348 517 0
-335 -337 -348 -517 0
336 338 349 518 0
-336 -338 -349 -518 0
337 339 350 519 0
-337 -339 -350 -519 0
338 340 351 520 0
-338 -340 -351 -520 0
341 343 352 521 0
-341 -343 -352 -521 0
342 344 353 522 0
-342 -344 -353 -522 0
343 345 354 523 0
-343 -345 -354 -523 0
344 346 355 524 0
-344 -346 -355 -524 0
347 349 356 525 0
-347 -349 -356 -525 0
348 350 357 526 0
-348 -350 -357 -526 0
349 351 358 527 0
-349 -351 -358 -527 0
352 354 359 528 0
-352 -354 -359 -528 0
353 355 360 529 0
-353 -355 -360 -529 0
356 358 361 530 0
-356 -358 -361 -530 0
362 364 387 531 0
-362 -364 -387 -531 0
363 365 388 532 0
-363 -365 -388 -532 0
364 366 389 533 0
-364 -366 -389 -533 0
365 367 390 534 0
-365 -367 -390 -534 0
366 368 391 535 0
-366 -368 -391 -535 0
367 369 392 536 0
-367 -369 -392 -536 0
368 370 393 537 0
-368 -370 -393 -537 0
369 371 394 538 0
-369 -371 -394 -538 0
370 372 395 539 0
-370 -372 -395 -539 0
371 373 396 540 0
-371 -373 -396 -540 0
372 374 397 541 0
-372 -374 -397 -541 0
375 377 398 542 0
-375 -377 -398 -542 0
376 378 399 543 0
-376 -378 -399 -543 0
377 379 400 544 0
-377 -379 -400 -544 0
378 380 401 545 0
-378 -380 -401 -545 0
379 381 402 546 0
-379 -381 -402 -546 0
380 382 403 547 0
-380 -382 -403 -547 0
381 383 404 548 0
-381 -383 -404 -548 0
382 384 405 549 0
-382 -384 -405 -549 0
383 385 406 550 0
-383 -385 -406 -550 0
384 386 407 551 0
-384 -386 -407 -551 0
387 389 408 552 0
-387 -389 -408 -552 0
388 390 409 553 0
-388 -390 -409 -553 0
389 391 410 554 0
-389 -391 -410 -554 0
390 392 411 555 0
-390 -392 -411 -555 0
391 393 412 556 0
-391 -393 -412 -556 0
392 394 413 557 0
-392 -394 -413 -557 0
393 395 414 558 0
-393 -395 -414 -558 0
394 396 415 559 0
-394 -396 -415 -559 0
395 397 416 560 0
-395 -397 -416 -560 0
398 400 417 561 0
-398 -400 -417 -561 0
399 401 418 562 0
-399 -401 -418 -562 0
400 402 419 563 0
-400 -402 -419 -563 0
401 403 420 564 0
-401 -403 -420 -564 0
402 404 421 565 0
-402 -404 -421 -565 0
403 405 422 566 0
-403 -405 -422 -566 0
404 406 423 567 0
-404 -406 -423 -567 0
405 407 424 568 0
-405 -407 -424 -568 0
408 410 425 569 0
-408 -410 -425 -569 0
409 411 426 570 0
-409 -411 -426 -570 0
410 412 427 571 0
-410 -412 -427 -571 0
411 413 428 572 0
-411 -413 -428 -572 0
412 414 429 573 0
-412 -414 -429 -573 0
413 415 430 574 0
-413 -415 -430 -574 0
414 416 431 575 0
-414 -416 -431 -575 0
417 419 432 576 0
-417 -419 -432 -576 0
418 420 433 577 0
-418 -420 -433 -577 0
419 421 434 578 0
-419 -421 -434 -578 0
420 422 435 579 0
-420 -422 -435 -579 0
421 423 436 580 0
-421 -423 -436 -580 0
422 424 437 581 0
-422 -424 -437 -581 0
425 427 438 582 0
-425 -427 -438 -582 0
426 428 439 583 0
-426 -428 -439 -583 0
427 429 440 584 0
-427 -429 -440 -584 0
428 430 441 585 0
-428 -430 -441 -585 0
429 431 442 586 0
-429 -431 -442 -586 0
432 434 443 587 0
-432 -434 -443 -587 0
433 435 444 588 0
-433 -435 -444 -588 0
434 436 445 589 0
-434 -436 -445 -589 0
435 437 446 590 0
-435 -437 -446 -590 0
438 440 447 591 0
-438 -440 -447 -591 0
439 441 448 592 0
-439 -441 -448 -592 0
440 442 449 593 0
-440 -442 -449 -593 0
443 445 450 594 0
-443 -445 -450 -594 0
444 446 451 595 0
-444 -446 -451 -595 0
447 449 452 596 0
-447 -449 -452 -596 0
453 455 476 597 0
-453 -455 -476 -597 0
454 456 477 598 0
-454 -456 -477 -598 0
455 457 478 599 0
-455 -457 -478 -599 0
456 458 479 600 0
-456 -458 -479 -600 0
457 459 480 601 0
-457 -459 -480 -601 0
458 460 481 602 0
-458 -460 -481 -602 0
459 461 482 603 0
-459 -461 -482 -603 0
460 462 483 604 0
-460 -462 -483 -604 0
461 463 484 605 0
-461 -463 -484 -605 0
462 464 485 606 0
-462 -464 -485 -606 0
465 467 486 607 0
-465 -467 -486 -607 0
466 468 487 608 0
-466 -468 -487 -608 0
467 469 488 609 0
-467 -469 -488 -609 0
468 470 489 610 0
-468 -470 -489 -610 0
469 471 490 611 0
-469 -471 -490 -611 0
470 472 491 612 0
-470 -472 -491 -612 0
471 473 492 613 0
-471 -473 -492 -613 0
472 474 493 614 0
-472 -474 -493 -614 0
473 475 494 615 0
-473 -475 -494 -615 0
476 478 495 616 0
-476 -478 -495 -616 0
477 479 496 617 0
-477 -479 -496 -617 0
478 480 497 618 0
-478 -480 -497 -618 0
479 481 498 619 0
-479 -481 -498 -619 0
480 482 499 620 0
-480 -482 -499 -620 0
481 483 500 621 0
-481 -483 -500 -621 0
482 484 501 622 0
-482 -484 -501 -622 0
483 485 502 623 0
-483 -485 -502 -623 0
486 488 503 624 0
-486 -488 -503 -624 0
487 489 504 625 0
-487 -489 -504 -625 0
488 490 505 626 0
-488 -490 -505 -626 0
489 491 506 627 0
-489 -491 -506 -627 0
490 492 507 628 0
-490 -492 -507 -628 0
491 493 508 629 0
-491 -493 -508 -629 0
492 494 509 630 0
-492 -494 -509 -630 0
495 497 510 631 0
-495 -497 -510 -631 0
496 498 511 632 0
-496 -498 -511 -632 0
497 499 512 633 0
-497 -499 -512 -633 0
498 500 513 634 0
-498 -500 -513 -634 0
499 501 514 635 0
-499 -501 -514 -635 0
500 502 515 636 0
-500 -502 -515 -636 0
503 505 516 637 0
-503 -505 -516 -637 0
504 506 517 638 0
-504 -506 -517 -638 0
505 507 518 639 0
-505 -507 -518 -639 0
506 508 519 640 0
-506 -508 -519 -640 0
507 509 520 641 0
-507 -509 -520 -641 0
510 512 521 642 0
-510 -512 -521 -642 0
511 513 522 643 0
-511 -513 -522 -643 0
512 514 523 644 0
-512 -514 -523 -644 0
513 515 524 645 0
-513 -515 -524 -645 0
516 518 525 646 0
-516 -518 -525 -646 0
517 519 526 647 0
-517 -519 -526 -647 0
518 520 527 648 0
-518 -520 -527 -648 0
521 523 528 649 0
-521 -523 -528 -649 0
522 524 529 650 0
-522 -524 -529 -650 0
525 527 530 651 0
-525 -527 -530 -651 0
531 533 552 652 0
-531 -533 -552 -652 0
532 534 553 653 0
-532 -534 -553 -653 0
533 535 554 654 0
-533 -535 -554 -654 0
534 536 555 655 0
-534 -536 -555 -655 0
535 537 556 656 0
-535 -537 -556 -656 0
536 538 557 657 0
-536 -538 -557 -657 0
537 539 558 658 0
-537 -539 -558 -658 0
538 540 559 659 0
-538 -540 -559 -659 0
539 541 560 660 0
-539 -541 -560 -660 0
542 544 561 661 0
-542 -544 -561 -661 0
543 545 562 662 0
-543 -545 -562 -662 0
544 546 563 663 0
-544 -546 -563 -663 0
545 547 564 664 0
-545 -547 -564 -664 0
546 548 565 665 0
-546 -548 -565 -665 0
547 549 566 666 0
-547 -549 -566 -666 0
548 550 567 667 0
-548 -550 -567 -667 0
549 551 568 668 0
-549 -551 -568 -668 0
552 554 569 669 0
-552 -554 -569 -669 0
553 555 570 670 0
-553 -555 -570 -670 0
554 556 571 671 0
-554 -556 -571 -671 0
555 557 572 672 0
-555 -557 -572 -672 0
556 558 573 673 0
-556 -558 -573 -673 0
557 559 574 674 0
-557 -559 -574 -674 0
558 560 575 675 0
-558 -560 -575 -675 0
561 563 576 676 0
-561 -563 -576 -676 0
562 564 577 677 0
-562 -564 -577 -677 0
563 565 578 678 0
-563 -565 -578 -678 0
564 566 579 679 0
-564 -566 -579 -679 0
565 567 580 680 0
-565 -567 -580 -680 0
566 568 581 681 0
-566 -568 -581 -681 0
569 571 582 682 0
-569 -571 -582 -682 0
570 572 583 683 0
-570 -572 -583 -683 0
571 573 584 684 0
-571 -573 -584 -684 0
572 574 585 685 0
-572 -574 -585 -685 0
573 575 586 686 0
-573 -575 -586 -686 0
576 578 587 687 0
-576 -578 -587 -687 0
577 579 588 688 0
-577 -579 -588 -688 0
578 580 589 689 0
-578 -580 -589 -689 0
579 581 590 690 0
-579 -581 -590 -690 0
582 584 591 691 0
-582 -584 -591 -691 0
583 585 592 692 0
-583 -585 -592 -692 0
584 586 593 693 0
-584 -586 -593 -693 0
587 589 594 694 0
-587 -589 -594 -694 0
588 590 595 695 0
-588 -590 -595 -695 0
591 593 596 696 0
-591 -593 -596 -696 0
597 599 616 697 0
-597 -599 -616 -697 0
598 600 617 698 0
-598 -600 -617 -698 0
599 601 618 699 0
-599 -601 -618 -699 0
600 602 619 700 0
-600 -602 -619 -700 0
601 603 620 701 0
-601 -603 -620 -701 0
602 604 621 702 0
-602 -604 -621 -702 0
603 605 622 703 0
-603 -605 -622 -703 0
604 606 623 704 0
-604 -606 -623 -704 0
607 609 624 705 0
-607 -609 -624 -705 0
608 610 625 706 0
-608 -610 -625 -706 0
609 611 626 707 0
-609 -611 -626 -707 0
610 612 627 708 0
-610 -612 -627 -708 0
611 613 628 709 0
-611 -613 -628 -709 0
612 614 629 710 0
-612 -614 -629 -710 0
613 615 630 711 0
-613 -615 -630 -711 0
616 618 631 712 0
-616 -618 -631 -712 0
617 619 632 713 0
-617 -619 -632 -713 0
618 620 633 714 0
-618 -620 -633 -714 0
619 621 634 715 0
-619 -621 -634 -715 0
620 622 635 716 0
-620 -622 -635 -716 0
621 623 636 717 0
-621 -623 -636 -717 0
624 626 637 718 0
-624 -626 -637 -718 0
625 627 638 719 0
-625 -627 -638 -719 0
626 628 639 720 0
-626 -628 -639 -720 0
627 629 640 721 0
-627 -629 -640 -721 0
628 630 641 722 0
-628 -630 -641 -722 0
631 633 642 723 0
-631 -633 -642 -723 0
632 634 643 724 0
-632 -634 -643 -724 0
633 635 644 725 0
-633 -635 -644 -725 0
634 636 645 726 0
-634 -636 -645 -726 0
637 639 646 727 0
-637 -639 -646 -727 0
638 640 647 728 0
-638 -640 -647 -728 0
639 641 648 729 0
-639 -641 -648 -729 0
642 644 649 730 0
-642 -644 -649 -730 0
643 645 650 731 0
-643 -645 -650 -731 0
646 648 651 732 0
-646 -648 -651 -732 0
652 654 669 733 0
-652 -654 -669 -733 0
653 655 670 734 0
-653 -655 -670 -734 0
654 656 671 735 0
-654 -656 -671 -735 0
655 657 672 736 0
-655 -657 -672 -736 0
656 658 673 737 0
-656 -658 -673 -737 0
657 659 674 738 0
-657 -659 -674 -738 0
658 660 675 739 0
-658 -660 -675 -739 0
661 663 676 740 0
-661 -663 -676 -740 0
662 664 677 741 0
-662 -664 -677 -741 0
663 665 678 742 0
-663 -665 -678 -742 0
664 666 679 743 0
-664 -666 -679 -743 0
665 667 680 744 0
-665 -667 -680 -744 0
666 668 681 745 0
-666 -668 -681 -745 0
669 671 682 746 0
-669 -671 -682 -746 0
670 672 683 747 0
-670 -672 -683 -747 0
671 673 684 748 0
-671 -673 -684 -748 0
672 674 685 749 0
-672 -674 -685 -749 0
673 675 686 750 0
-673 -675 -686 -750 0
676 678 687 751 0
-676 -678 -687 -751 0
677 679 688 752 0
-677 -679 -688 -752 0
678 680 689 753 0
-678 -680 -689 -753 0
679 681 690 754 0
-679 -681 -690 -754 0
682 684 691 755 0
-682 -684 -691 -755 0
683 685 692 756 0
-683 -685 -692 -756 0
684 686 693 757 0
-684 -686 -693 -757 0
687 689 694 758 0
-687 -689 -694 -758 0
688 690 695 759 0
-688 -690 -695 -759 0
691 693 696 760 0
-691 -693 -696 -760 0
697 699 712 761 0
-697 -699 -712 -761 0
698 700 713 762 0
-698 -700 -713 -762 0
699 701 714 763 0
-699 -701 -714 -763 0
700 702 715 764 0
-700 -702 -715 -764 0
701 703 716 765 0
-701 -703 -716 -765 0
702 704 717 766 0
-702 -704 -717 -766 0
705 707 718 767 0
-705 -707 -718 -767 0
706 708 719 768 0
-706 -708 -719 -768 0
707 709 720 769 0
-707 -709 -720 -769 0
708 710 721 770 0
-708 -710 -721 -770 0
709 711 722 771 0
-709 -711 -722 -771 0
712 714 723 772 0
-712 -714 -723 -772 0
713 715 724 773 0
-713 -715 -724 -773 0
714 716 725 774 0
-714 -716 -725 -774 0
715 717 726 775 0
-715 -717 -726 -775 0
718 720 727 776 0
-718 -720 -727 -776 0
719 721 728 777 0
-719 -721 -728 -777 0
720 722 729 778 0
-720 -722 -729 -778 0
723 725 730 779 0
-723 -725 -730 -779 0
724 726 731 780 0
-724 -726 -731 -780 0
727 729 732 781 0
-727 -729 -732 -781 0
733 735 746 782 0
-733 -735 -746 -782 0
734 736 747 783 0
-734 -736 -747 -783 0
735 737 748 784 0
-735 -737 -748 -784 0
736 738 749 785 0
-736 -738 -749 -785 0
737 739 750 786 0
-737 -739 -750 -786 0
740 742 751 787 0
-740 -742 -751 -787 0
741 743 752 788 0
-741 -743 -752 -788 0
742 744 753 789 0
-742 -744 -753 -789 0
743 745 754 790 0
-743 -745 -754 -790 0
746 748 755 791 0
-746 -748 -755 -791 0
747 749 756 792 0
-747 -749 -756 -792 0
748 750 757 793 0
-748 -750 -757 -793 0
751 753 758 794 0
-751 -753 -758 -794 0
752 754 759 795 0
-752 -754 -759 -795 0
755 757 760 796 0
-755 -757 -760 -796 0
761 763 772 797 0
-761 -763 -772 -797 0
762 764 773 798 0
-762 -764 -773 -798 0
763 765 774 799 0
-763 -765 -774 -799 0
764 766 775 800 0
-764 -766 -775 -800 0
767 769 776 801 0
-767 -769 -776 -801 0
768 770 777 802 0
-768 -770 -777 -802 0
769 771 778 803 0
-769 -771 -778 -803 0
772 774 779 804 0
-772 -774 -779 -804 0
773 775 780 805 0
-773 -775 -780 -805 0
776 778 781 806 0
-776 -778 -781 -806 0
782 784 791 807 0
-782 -784 -791 -807 0
783 785 792 808 0
-783 -785 -792 -808 0
784 786 793 809 0
-784 -786 -793 -809 0
787 789 794 810 0
-787 -789 -794 -810 0
788 790 795 811 0
-788 -790 -795 -811 0
791 793 796 812 0
-791 -793 -796 -812 0
797 799 804 813 0
-797 -799 -804 -813 0
798 800 805 814 0
-798 -800 -805 -814 0
801 803 806 815 0
-801 -803 -806 -815 0
807 809 812 816 0
-807 -809 -812 -816 0
4 10 76 362 0
-4 -10 -76 -362 0
3 13 78 363 0
-3 -13 -78 -363 0
7 16 80 364 0
-7 -16 -80 -364 0
10 19 82 365 0
-10 -19 -82 -365 0
13 22 84 366 0
-13 -22 -84 -366 0
16 25 86 367 0
-16 -25 -86 -367 0
19 28 88 368 0
-19 -28 -88 -368 0
22 31 90 369 0
-22 -31 -90 -369 0
25 34 92 370 0
-25 -34 -92 -370 0
28 37 94 371 0
-28 -37 -94 -371 0
31 40 96 372 0
-31 -40 -96 -372 0
34 43 98 373 0
-34 -43 -98 -373 0
37 46 100 374 0
-37 -46 -100 -374 0
2 12 102 375 0
-2 -12 -102 -375 0
6 15 104 376 0
-6 -15 -104 -376 0
9 18 106 377 0
-9 -18 -106 -377 0
12 21 108 378 0
-12 -21 -108 -378 0
15 24 110 379 0
-15 -24 -110 -379 0
18 27 112 380 0
-18 -27 -112 -380 0
21 30 114 381 0
-21 -30 -114 -381 0
24 33 116 382 0
-24 -33 -116 -382 0
27 36 118 383 0
-27 -36 -118 -383 0
30 39 120 384 0
-30 -39 -120 -384 0
33 42 122 385 0
-33 -42 -122 -385 0
36 45 124 386 0
-36 -45 -124 -386 0
48 54 126 387 0
-48 -54 -126 -387 0
50 56 128 388 0
-50 -56 -128 -388 0
52 58 130 389 0
-52 -58 -130 -389 0
54 60 132 390 0
-54 -60 -132 -390 0
56 62 134 391 0
-56 -62 -134 -391 0
58 64 136 392 0
-58 -64 -136 -392 0
60 66 138 393 0
-60 -66 -138 -393 0
62 68 140 394 0
-62 -68 -140 -394 0
64 70 142 395 0
-64 -70 -142 -395 0
66 72 144 396 0
-66 -72 -144 -396 0
68 74 146 397 0
-68 -74 -146 -397 0
76 82 148 398 0
-76 -82 -148 -398 0
78 84 150 399 0
-78 -84 -150 -399 0
80 86 152 400 0
-80 -86 -152 -400 0
82 88 154 401 0
-82 -88 -154 -401 0
84 90 156 402 0
-84 -90 -156 -402 0
86 92 158 403 0
-86 -92 -158 -403 0
88 94 160 404 0
-88 -94 -160 -404 0
90 96 162 405 0
-90 -96 -162 -405 0
92 98 164 406 0
-92 -98 -164 -406 0
94 100 166 407 0
-94 -100 -166 -407 0
102 108 168 408 0
-102 -108 -168 -408 0
104 110 170 409 0
-104 -110 -170 -409 0
106 112 172 410 0
-106 -112 -172 -410 0
108 114 174 411 0
-108 -114 -174 -411 0
110 116 176 412 0
-110 -116 -176 -412 0
112 118 178 413 0
-112 -118 -178 -413 0
114 120 180 414 0
-114 -120 -180 -414 0
116 122 182 415 0
-116 -122 -182 -415 0
118 124 184 416 0
-118 -124 -184 -416 0
126 132 186 417 0
-126 -132 -186 -417 0
128 134 188 418 0
-128 -134 -188 -418 0
130 136 190 419 0
-130 -136 -190 -419 0
132 138 192 420 0
-132 -138 -192 -420 0
134 140 194 421 0
-134 -140 -194 -421 0
136 142 196 422 0
-136 -142 -196 -422 0
138 144 198 423 0
-138 -144 -198 -423 0
140 146 200 424 0
-140 -146 -200 -424 0
148 154 202 425 0
-148 -154 -202 -425 0
150 156 204 426 0
-150 -156 -204 -426 0
152 158 206 427 0
-152 -158 -206 -427 0
154 160 208 428 0
-154 -160 -208 -428 0
156 162 210 429 0
-156 -162 -210 -429 0
158 164 212 430 0
-158 -164 -212 -430 0
160 166 214 431 0
-160 -166 -214 -431 0
168 174 216 432 0
-168 -174 -216 -432 0
170 176 218 433 0
-170 -176 -218 -433 0
172 178 220 434 0
-172 -178 -220 -434 0
174 180 222 435 0
-174 -180 -222 -435 0
176 182 224 436 0
-176 -182 -224 -436 0
178 184 226 437 0
-178 -184 -226 -437 0
186 192 228 438 0
-186 -192 -228 -438 0
188 194 230 439 0
-188 -194 -230 -439 0
190 196 232 440 0
-190 -196 -232 -440 0
192 198 234 441 0
-192 -198 -234 -441 0
194 200 236 442 0
-194 -200 -236 -442 0
202 208 238 443 0
-202 -208 -238 -443 0
204 210 240 444 0
-204 -210 -240 -444 0
206 212 242 445 0
-206 -212 -242 -445 0
208 214 244 446 0
-208 -214 -244 -446 0
216 222 246 447 0
-216 -222 -246 -447 0
218 224 248 448 0
-218 -224 -248 -448 0
220 226 250 449 0
-220 -226 -250 -449 0
228 234 252 450 0
-228 -234 -252 -450 0
230 236 254 451 0
-230 -236 -254 -451 0
238 244 256 452 0
-238 -244 -256 -452 0
1 11 101 453 0
-1 -11 -101 -453 0
5 14 103 454 0
-5 -14 -103 -454 0
8 17 105 455 0
-8 -17 -105 -455 0
11 20 107 456 0
-11 -20 -107 -456 0
14 23 109 457 0
-14 -23 -109 -457 0
17 26 111 458 0
-17 -26 -111 -458 0
20 29 113 459 0
-20 -29 -113 -459 0
23 32 115 460 0
-23 -32 -115 -460 0
26 35 117 461 0
-26 -35 -117 -461 0
29 38 119 462 0
-29 -38 -119 -462 0
32 41 121 463 0
-32 -41 -121 -463 0
35 44 123 464 0
-35 -44 -123 -464 0
47 53 125 465 0
-47 -53 -125 -465 0
49 55 127 466 0
-49 -55 -127 -466 0
51 57 129 467 0
-51 -57 -129 -467 0
53 59 131 468 0
-53 -59 -131 -468 0
55 61 133 469 0
-55 -61 -133 -469 0
57 63 135 470 0
-57 -63 -135 -470 0
59 65 137 471 0
-59 -65 -137 -471 0
61 67 139 472 0
-61 -67 -139 -472 0
63 69 141 473 0
-63 -69 -141 -473 0
65 71 143 474 0
-65 -71 -143 -474 0
67 73 145 475 0
-67 -73 -145 -475 0
75 81 147 476 0
-75 -81 -147 -476 0
77 83 149 477 0
-77 -83 -149 -477 0
79 85 151 478 0
-79 -85 -151 -478 0
81 87 153 479 0
-81 -87 -153 -479 0
83 89 155 480 0
-83 -89 -155 -480 0
85 91 157 481 0
-85 -91 -157 -481 0
87 93 159 482 0
-87 -93 -159 -482 0
89 95 161 483 0
-89 -95 -161 -483 0
91 97 163 484 0
-91 -97 -163 -484 0
93 99 165 485 0
-93 -99 -165 -485 0
101 107 167 486 0
-101 -107 -167 -486 0
103 109 169 487 0
-103 -109 -169 -487 0
105 111 171 488 0
-105 -111 -171 -488 0
107 113 173 489 0
-107 -113 -173 -489 0
109 115 175 490 0
-109 -115 -175 -490 0
111 117 177 491 0
-111 -117 -177 -491 0
113 119 179 492 0
-113 -119 -179 -492 0
115 121 181 493 0
-115 -121 -181 -493 0
117 123 183 494 0
-117 -123 -183 -494 0
125 131 185 495 0
-125 -131 -185 -495 0
127 133 187 496 0
-127 -133 -187 -496 0
129 135 189 497 0
-129 -135 -189 -497 0
131 137 191 498 0
-131 -137 -191 -498 0
133 139 193 499 0
-133 -139 -193 -499 0
135 141 195 500 0
-135 -141 -195 -500 0
137 143 197 501 0
-137 -143 -197 -501 0
139 145 199 502 0
-139 -145 -199 -502 0
147 153 201 503 0
-147 -153 -201 -503 0
149 155 203 504 0
-149 -155 -203 -504 0
151 157 205 505 0
-151 -157 -205 -505 0
153 159 207 506 0
-153 -159 -207 -506 0
155 161 209 507 0
-155 -161 -209 -507 0
157 163 211 508 0
-157 -163 -211 -508 0
159 165 213 509 0
-159 -165 -213 -509 0
167 173 215 510 0
-167 -173 -215 -510 0
169 175 217 511 0
-169 -175 -217 -511 0
171 177 219 512 0
-171 -177 -219 -512 0
173 179 221 513 0
-173 -179 -221 -513 0
175 181 223 514 0
-175 -181 -223 -514 0
177 183 225 515 0
-177 -183 -225 -515 0
185 191 227 516 0
-185 -191 -227 -516 0
187 193 229 517 0
-187 -193 -229 -517 0
189 195 231 518 0
-189 -195 -231 -518 0
191 197 233 519 0
-191 -197 -233 -519 0
193 199 235 520 0
-193 -199 -235 -520 0
201 207 237 521 0
-201 -207 -237 -521 0
203 209 239 522 0
-203 -209 -239 -522 0
205 211 241 523 0
-205 -211 -241 -523 0
207 213 243 524 0
-207 -213 -243 -524 0
215 221 245 525 0
-215 -221 -245 -525 0
217 223 247 526 0
-217 -223 -247 -526 0
219 225 249 527 0
-219 -225 -249 -527 0
227 233 251 528 0
-227 -233 -251 -528 0
229 235 253 529 0
-229 -235 -253 -529 0
237 243 255 530 0
-237 -243 -255 -530 0
257 260 296 531 0
-257 -260 -296 -531 0
258 261 297 532 0
-258 -261 -297 -532 0
259 262 298 533 0
-259 -262 -298 -533 0
260 263 299 534 0
-260 -263 -299 -534 0
261 264 300 535 0
-261 -264 -300 -535 0
262 265 301 536 0
-262 -265 -301 -536 0
263 266 302 537 0
-263 -266 -302 -537 0
264 267 303 538 0
-264 -267 -303 -538 0
265 268 304 539 0
-265 -268 -304 -539 0
266 269 305 540 0
-266 -269 -305 -540 0
267 270 306 541 0
-267 -270 -306 -541 0
271 274 307 542 0
-271 -274 -307 -542 0
272 275 308 543 0
-272 -275 -308 -543 0
273 276 309 544 0
-273 -276 -309 -544 0
274 277 310 545 0
-274 -277 -310 -545 0
275 278 311 546 0
-275 -278 -311 -546 0
276 279 312 547 0
-276 -279 -312 -547 0
277 280 313 548 0
-277 -280 -313 -548 0
278 281 314 549 0
-278 -281 -314 -549 0
279 282 315 550 0
-279 -282 -315 -550 0
280 283 316 551 0
-280 -283 -316 -551 0
284 287 317 552 0
-284 -287 -317 -552 0
285 288 318 553 0
-285 -288 -318 -553 0
286 289 319 554 0
-286 -289 -319 -554 0
287 290 320 555 0
-287 -290 -320 -555 0
288 291 321 556 0
-288 -291 -321 -556 0
289 292 322 557 0
-289 -292 -322 -557 0
290 293 323 558 0
-290 -293 -323 -558 0
291 294 324 559 0
-291 -294 -324 -559 0
292 295 325 560 0
-292 -295 -325 -560 0
296 299 326 561 0
-296 -299 -326 -561 0
297 300 327 562 0
-297 -300 -327 -562 0
298 301 328 563 0
-298 -301 -328 -563 0
299 302 329 564 0
-299 -302 -329 -564 0
300 303 330 565 0
-300 -303 -330 -565 0
301 304 331 566 0
-301 -304 -331 -566 0
302 305 332 567 0
-302 -305 -332 -567 0
303 306 333 568 0
-303 -306 -333 -568 0
307 310 334 569 0
-307 -310 -334 -569 0
308 311 335 570 0
-308 -311 -335 -570 0
309 312 336 571 0
-309 -312 -336 -571 0
310 313 337 572 0
-310 -313 -337 -572 0
311 314 338 573 0
-311 -314 -338 -573 0
312 315 339 574 0
-312 -315 -339 -574 0
313 316 340 575 0
-313 -316 -340 -575 0
317 320 341 576 0
-317 -320 -341 -576 0
318 321 342 577 0
-318 -321 -342 -577 0
319 322 343 578 0
-319 -322 -343 -578 0
320 323 344 579 0
-320 -323 -344 -579 0
321 324 345 580 0
-321 -324 -345 -580 0
322 325 346 581 0
-322 -325 -346 -581 0
326 329 347 582 0
-326 -329 -347 -582 0
327 330 348 583 0
-327 -330 -348 -583 0
328 331 349 584 0
-328 -331 -349 -584 0
329 332 350 585 0
-329 -332 -350 -585 0
330 333 351 586 0
-330 -333 -351 -586 0
334 337 352 587 0
-334 -337 -352 -587 0
335 338 353 588 0
-335 -338 -353 -588 0
336 339 354 589 0
-336 -339 -354 -589 0
337 340 355 590 0
-337 -340 -355 -590 0
341 344 356 591 0
-341 -344 -356 -591 0
342 345 357 592 0
-342 -345 -357 -592 0
343 346 358 593 0
-343 -346 -358 -593 0
347 350 359 594 0
-347 -350 -359 -594 0
348 351 360 595 0
-348 -351 -360 -595 0
352 355 361 596 0
-352 -355 -361 -596 0
362 365 398 597 0
-362 -365 -398 -597 0
363 366 399 598 0
-363 -366 -399 -598 0
364 367 400 599 0
-364 -367 -400 -599 0
365 368 401 600 0
-365 -368 -401 -600 0
366 369 402 601 0
-366 -369 -402 -601 0
367 370 403 602 0
-367 -370 -403 -602 0
368 371 404 603 0
-368 -371 -404 -603 0
369 372 405 604 0
-369 -372 -405 -604 0
370 373 406 605 0
-370 -373 -406 -605 0
371 374 407 606 0
-371 -374 -407 -606 0
375 378 408 607 0
-375 -378 -408 -607 0
376 379 409 608 0
-376 -379 -409 -608 0
377 380 410 609 0
-377 -380 -410 -609 0
378 381 411 610 0
-378 -381 -411 -610 0
379 382 412 611 0
-379 -382 -412 -611 0
380 383 413 612 0
-380 -383 -413 -612 0
381 384 414 613 0
-381 -384 -414 -613 0
382 385 415 614 0
-382 -385 -415 -614 0
383 386 416 615 0
-383 -386 -416 -615 0
387 390 417 616 0
-387 -390 -417 -616 0
388 391 418 617 0
-388 -391 -418 -617 0
389 392 419 618 0
-389 -392 -419 -618 0
390 393 420 619 0
-390 -393 -420 -619 0
391 394 421 620 0
-391 -394 -421 -620 0
392 395 422 621 0
-392 -395 -422 -621 0
393 396 423 622 0
-393 -396 -423 -622 0
394 397 424 623 0
-394 -397 -424 -623 0
398 401 425 624 0
-398 -401 -425 -624 0
399 402 426 625 0
-399 -402 -426 -625 0
400 403 427 626 0
-400 -403 -427 -626 0
401 404 428 627 0
-401 -404 -428 -627 0
402 405 429 628 0
-402 -405 -429 -628 0
403 406 430 629 0
-403 -406 -430 -629 0
404 407 431 630 0
-404 -407 -431 -630 0
408 411 432 631 0
-408 -411 -432 -631 0
409 412 433 632 0
-409 -412 -433 -632 0
410 413 434 633 0
-410 -413 -434 -633 0
411 414 435 634 0
-411 -414 -435 -634 0
412 415 436 635 0
-412 -415 -436 -635 0
413 416 437 636 0
-413 -416 -437 -636 0
417 420 438 637 0
-417 -420 -438 -637 0
418 421 439 638 0
-418 -421 -439 -638 0
419 422 440 639 0
-419 -422 -440 -639 0
420 423 441 640 0
-420 -423 -441 -640 0
421 424 442 641 0
-421 -424 -442 -641 0
425 428 443 642 0
-425 -428 -443 -642 0
426 429 444 643 0
-426 -429 -444 -643 0
427 430 445 644 0
-427 -430 -445 -644 0
428 431 446 645 0
-428 -431 -446 -645 0
432 435 447 646 0
-432 -435 -447 -646 0
433 436 448 647 0
-433 -436 -448 -647 0
434 437 449 648 0
-434 -437 -449 -648 0
438 441 450 649 0
-438 -441 -450 -649 0
439 442 451 650 0
-439 -442 -451 -650 0
443 446 452 651 0
-443 -446 -452 -651 0
453 456 486 652 0
-453 -456 -486 -652 0
454 457 487 653 0
-454 -457 -487 -653 0
455 458 488 654 0
-455 -458 -488 -654 0
456 459 489 655 0
-456 -459 -489 -655 0
457 460 490 656 0
-457 -460 -490 -656 0
458 461 491 657 0
-458 -461 -491 -657 0
459 462 492 658 0
-459 -462 -492 -658 0
460 463 493 659 0
-460 -463 -493 -659 0
461 464 494 660 0
-461 -464 -494 -660 0
465 468 495 661 0
-465 -468 -495 -661 0
466 469 496 662 0
-466 -469 -496 -662 0
467 470 497 663 0
-467 -470 -497 -663 0
468 471 498 664 0
-468 -471 -498 -664 0
469 472 499 665 0
-469 -472 -499 -665 0
470 473 500 666 0
-470 -473 -500 -666 0
471 474 501 667 0
-471 -474 -501 -667 0
472 475 502 668 0
-472 -475 -502 -668 0
476 479 503 669 0
-476 -479 -503 -669 0
477 480 504 670 0
-477 -480 -504 -670 0
478 481 505 671 0
-478 -481 -505 -671 0
479 482 506 672 0
-479 -482 -506 -672 0
480 483 507 673 0
-480 -483 -507 -673 0
481 484 508 674 0
-481 -484 -508 -674 0
482 485 509 675 0
-482 -485 -509 -675 0
486 489 510 676 0
-486 -489 -510 -676 0
487 490 511 677 0
-487 -490 -511 -677 0
488 491 512 678 0
-488 -491 -512 -678 0
489 492 513 679 0
-489 -492 -513 -679 0
490 493 514 680 0
-490 -493 -514 -680 0
491 494 515 681 0
-491 -494 -515 -681 0
495 498 516 682 0
-495 -498 -516 -682 0
496 499 517 683 0
-496 -499 -517 -683 0
497 500 518 684 0
-497 -500 -518 -684 0
498 501 519 685 0
-498 -501 -519 -685 0
499 502 520 686 0
-499 -502 -520 -686 0
503 506 521 687 0
-503 -506 -521 -687 0
504 507 522 688 0
-504 -507 -522 -688 0
505 508 523 689 0
-505 -508 -523 -689 0
506 509 524 690 0
-506 -509 -524 -690 0
510 513 525 691 0
-510 -513 -525 -691 0
511 514 526 692 0
-511 -514 -526 -692 0
512 515 527 693 0
-512 -515 -527 -693 0
516 519 528 694 0
-516 -519 -528 -694 0
517 520 529 695 0
-517 -520 -529 -695 0
521 524 530 696 0
-521 -524 -530 -696 0
531 534 561 697 0
-531 -534 -561 -697 0
532 535 562 698 0
-532 -535 -562 -698 0
533 536 563 699 0
-533 -536 -563 -699 0
534 537 564 700 0
-534 -537 -564 -700 0
535 538 565 701 0
-535 -538 -565 -701 0
536 539 566 702 0
-536 -539 -566 -702 0
537 540 567 703 0
-537 -540 -567 -703 0
538 541 568 704 0
-538 -541 -568 -704 0
542 545 569 705 0
-542 -545 -569 -705 0
543 546 570 706 0
-543 -546 -570 -706 0
544 547 571 707 0
-544 -547 -571 -707 0
545 548 572 708 0
-545 -548 -572 -708 0
546 549 573 709 0
-546 -549 -573 -709 0
547 550 574 710 0
-547 -550 -574 -710 0
548 551 575 711 0
-548 -551 -575 -711 0
552 555 576 712 0
-552 -555 -576 -712 0
553 556 577 713 0
-553 -556 -577 -713 0
554 557 578 714 0
-554 -557 -578 -714 0
555 558 579 715 0
-555 -558 -579 -715 0
556 559 580 716 0
-556 -559 -580 -716 0
557 560 581 717 0
-557 -560 -581 -717 0
561 564 582 718 0
-561 -564 -582 -718 0
562 565 583 719 0
-562 -565 -583 -719 0
563 566 584 720 0
-563 -566 -584 -720 0
564 567 585 721 0
-564 -567 -585 -721 0
565 568 586 722 0
-565 -568 -586 -722 0
569 572 587 723 0
-569 -572 -587 -723 0
570 573 588 724 0
-570 -573 -588 -724 0
571 574 589 725 0
-571 -574 -589 -725 0
572 575 590 726 0
-572 -575 -590 -726 0
576 579 591 727 0
-576 -579 -591 -727 0
577 580 592 728 0
-577 -580 -592 -728 0
578 581 593 729 0
-578 -581 -593 -729 0
582 585 594 730 0
-582 -585 -594 -730 0
583 586 595 731 0
-583 -586 -595 -731 0
587 590 596 732 0
-587 -590 -596 -732 0
597 600 624 733 0
-597 -600 -624 -733 0
598 601 625 734 0
-598 -601 -625 -734 0
599 602 626 735 0
-599 -602 -626 -735 0
600 603 627 736 0
-600 -603 -627 -736 0
601 604 628 737 0
-601 -604 -628 -737 0
602 605 629 738 0
-602 -605 -629 -738 0
603 606 630 739 0
-603 -606 -630 -739 0
607 610 631 740 0
-607 -610 -631 -740 0
608 611 632 741 0
-608 -611 -632 -741 0
609 612 633 742 0
-609 -612 -633 -742 0
610 613 634 743 0
-610 -613 -634 -743 0
611 614 635 744 0
-611 -614 -635 -744 0
612 615 636 745 0
-612 -615 -636 -745 0
616 619 637 746 0
-616 -619 -637 -746 0
617 620 638 747 0
-617 -620 -638 -747 0
618 621 639 748 0
-618 -621 -639 -748 0
619 622 640 749 0
-619 -622 -640 -749 0
620 623 641 750 0
-620 -623 -641 -750 0
624 627 642 751 0
-624 -627 -642 -751 0
625 628 643 752 0
-625 -628 -643 -752 0
626 629 644 753 0
-626 -629 -644 -753 0
627 630 645 754 0
-627 -630 -645 -754 0
631 634 646 755 0
-631 -634 -646 -755 0
632 635 647 756 0
-632 -635 -647 -756 0
633 636 648 757 0
-633 -636 -648 -757 0
637 640 649 758 0
-637 -640 -649 -758 0
638 641 650 759 0
-638 -641 -650 -759 0
642 645 651 760 0
-642 -645 -651 -760 0
652 655 676 761 0
-652 -655 -676 -761 0
653 656 677 762 0
-653 -656 -677 -762 0
654 657 678 763 0
-654 -657 -678 -763 0
655 658 679 764 0
-655 -658 -679 -764 0
656 659 680 765 0
-656 -659 -680 -765 0
657 660 681 766 0
-657 -660 -681 -766 0
661 664 682 767 0
-661 -664 -682 -767 0
662 665 683 768 0
-662 -665 -683 -768 0
663 666 684 769 0
-663 -666 -684 -769 0
664 667 685 770 0
-664 -667 -685 -770 0
665 668 686 771 0
-665 -668 -686 -771 0
669 672 687 772 0
-669 -672 -687 -772 0
670 673 688 773 0
-670 -673 -688 -773 0
671 674 689 774 0
-671 -674 -689 -774 0
672 675 690 775 0
-672 -675 -690 -775 0
676 679 691 776 0
-676 -679 -691 -776 0
677 680 692 777 0
-677 -680 -692 -777 0
678 681 693 778 0
-678 -681 -693 -778 0
682 685 694 779 0
-682 -685 -694 -779 0
683 686 695 780 0
-683 -686 -695 -780 0
687 690 696 781 0
-687 -690 -696 -781 0
697 700 718 782 0
-697 -700 -718 -782 0
698 701 719 783 0
-698 -701 -719 -783 0
699 702 720 784 0
-699 -702 -720 -784 0
700 703 721 785 0
-700 -703 -721 -785 0
701 704 722 786 0
-701 -704 -722 -786 0
705 708 723 787 0
-705 -708 -723 -787 0
706 709 724 788 0
-706 -709 -724 -788 0
707 710 725 789 0
-707 -710 -725 -789 0
708 711 726 790 0
-708 -711 -726 -790 0
712 715 727 791 0
-712 -715 -727 -791 0
713 716 728 792 0
-713 -716 -728 -792 0
714 717 729 793 0
-714 -717 -729 -793 0
718 721 730 794 0
-718 -721 -730 -794 0
719 722 731 795 0
-719 -722 -731 -795 0
723 726 732 796 0
-723 -726 -732 -796 0
733 736 751 797 0
-733 -736 -751 -797 0
734 737 752 798 0
-734 -737 -752 -798 0
735 738 753 799 0
-735 -738 -753 -799 0
736 739 754 800 0
-736 -739 -754 -800 0
740 743 755 801 0
-740 -743 -755 -801 0
741 744 756 802 0
-741 -744 -756 -802 0
742 745 757 803 0
-742 -745 -757 -803 0
746 749 758 804 0
-746 -749 -758 -804 0
747 750 759 805 0
-747 -750 -759 -805 0
751 754 760 806 0
-751 -754 -760 -806 0
761 764 776 807 0
-761 -764 -776 -807 0
762 765 777 808 0
-762 -765 -777 -808 0
763 766 778 809 0
-763 -766 -778 -809 0
767 770 779 810 0
-767 -770 -779 -810 0
768 771 780 811 0
-768 -771 -780 -811 0
772 775 781 812 0
-772 -775 -781 -812 0
782 785 794 813 0
-782 -785 -794 -813 0
783 786 795 814 0
-783 -786 -795 -814 0
787 790 796 815 0
-787 -790 -796 -815 0
797 800 806 816 0
-797 -800 -806 -816 0
4 13 102 453 0
-4 -13 -102 -453 0
3 16 104 454 0
-3 -16 -104 -454 0
7 19 106 455 0
-7 -19 -106 -455 0
10 22 108 456 0
-10 -22 -108 -456 0
13 25 110 457 0
-13 -25 -110 -457 0
16 28 112 458 0
-16 -28 -112 -458 0
19 31 114 459 0
-19 -31 -114 -459 0
22 34 116 460 0
-22 -34 -116 -460 0
25 37 118 461 0
-25 -37 -118 -461 0
28 40 120 462 0
-28 -40 -120 -462 0
31 43 122 463 0
-31 -43 -122 -463 0
34 46 124 464 0
-34 -46 -124 -464 0
2 15 126 465 0
-2 -15 -126 -465 0
6 18 128 466 0
-6 -18 -128 -466 0
9 21 130 467 0
-9 -21 -130 -467 0
12 24 132 468 0
-12 -24 -132 -468 0
15 27 134 469 0
-15 -27 -134 -469 0
18 30 136 470 0
-18 -30 -136 -470 0
21 33 138 471 0
-21 -33 -138 -471 0
24 36 140 472 0
-24 -36 -140 -472 0
27 39 142 473 0
-27 -39 -142 -473 0
30 42 144 474 0
-30 -42 -144 -474 0
33 45 146 475 0
-33 -45 -146 -475 0
48 56 148 476 0
-48 -56 -148 -476 0
50 58 150 477 0
-50 -58 -150 -477 0
52 60 152 478 0
-52 -60 -152 -478 0
54 62 154 479 0
-54 -62 -154 -479 0
56 64 156 480 0
-56 -64 -156 -480 0
58 66 158 481 0
-58 -66 -158 -481 0
60 68 160 482 0
-60 -68 -160 -482 0
62 70 162 483 0
-62 -70 -162 -483 0
64 72 164 484 0
-64 -72 -164 -484 0
66 74 166 485 0
-66 -74 -166 -485 0
76 84 168 486 0
-76 -84 -168 -486 0
78 86 170 487 0
-78 -86 -170 -487 0
80 88 172 488 0
-80 -88 -172 -488 0
82 90 174 489 0
-82 -90 -174 -489 0
84 92 176 490 0
-84 -92 -176 -490 0
86 94 178 491 0
-86 -94 -178 -491 0
88 96 180 492 0
-88 -96 -180 -492 0
90 98 182 493 0
-90 -98 -182 -493 0
92 100 184 494 0
-92 -100 -184 -494 0
102 110 186 495 0
-102 -110 -186 -495 0
104 112 188 496 0
-104 -112 -188 -496 0
106 114 190 497 0
-106 -114 -190 -497 0
108 116 192 498 0
-108 -116 -192 -498 0
110 118 194 499 0
-110 -118 -194 -499 0
112 120 196 500 0
-112 -120 -196 -500 0
114 122 198 501 0
-114 -122 -198 -501 0
116 124 200 502 0
-116 -124 -200 -502 0
126 134 202 503 0
-126 -134 -202 -503 0
128 136 204 504 0
-128 -136 -204 -504 0
130 138 206 505 0
-130 -138 -206 -505 0
132 140 208 506 0
-132 -140 -208 -506 0
134 142 210 507 0
-134 -142 -210 -507 0
136 144 212 508 0
-136 -144 -212 -508 0
138 146 214 509 0
-138 -146 -214 -509 0
148 156 216 510 0
-148 -156 -216 -510 0
150 158 218 511 0
-150 -158 -218 -511 0
152 160 220 512 0
-152 -160 -220 -512 0
154 162 222 513 0
-154 -162 -222 -513 0
156 164 224 514 0
-156 -164 -224 -514 0
158 166 226 515 0
-158 -166 -226 -515 0
168 176 228 516 0
-168 -176 -228 -516 0
170 178 230 517 0
-170 -178 -230 -517 0
172 180 232 518 0
-172 -180 -232 -518 0
174 182 234 519 0
-174 -182 -234 -519 0
176 184 236 520 0
-176 -184 -236 -520 0
186 194 238 521 0
-186 -194 -238 -521 0
188 196 240 522 0
-188 -196 -240 -522 0
190 198 242 523 0
-190 -198 -242 -523 0
192 200 244 524 0
-192 -200 -244 -524 0
202 210 246 525 0
-202 -210 -246 -525 0
204 212 248 526 0
-204 -212 -248 -526 0
206 214 250 527 0
-206 -214 -250 -527 0
216 224 252 528 0
-216 -224 -252 -528 0
218 226 254 529 0
-218 -226 -254 -529 0
228 236 256 530 0
-228 -236 -256 -530 0
1 14 125 531 0
-1 -14 -125 -531 0
5 17 127 532 0
-5 -17 -127 -532 0
8 20 129 533 0
-8 -20 -129 -533 0
11 23 131 534 0
-11 -23 -131 -534 0
14 26 133 535 0
-14 -26 -133 -535 0
17 29 135 536 0
-17 -29 -135 -536 0
20 32 137 537 0
-20 -32 -137 -537 0
23 35 139 538 0
-23 -35 -139 -538 0
26 38 141 539 0
-26 -38 -141 -539 0
29 41 143 540 0
-29 -41 -143 -540 0
32 44 145 541 0
-32 -44 -145 -541 0
47 55 147 542 0
-47 -55 -147 -542 0
49 57 149 543 0
-49 -57 -149 -543 0
51 59 151 544 0
-51 -59 -151 -544 0
53 61 153 545 0
-53 -61 -153 -545 0
55 63 155 546 0
-55 -63 -155 -546 0
57 65 157 547 0
-57 -65 -157 -547 0
59 67 159 548 0
-59 -67 -159 -548 0
61 69 161 549 0
-61 -69 -161 -549 0
63 71 163 550 0
-63 -71 -163 -550 0
65 73 165 551 0
-65 -73 -165 -551 0
75 83 167 552 0
-75 -83 -167 -552 0
77 85 169 553 0
-77 -85 -169 -553 0
79 87 171 554 0
-79 -87 -171 -554 0
81 89 173 555 0
-81 -89 -173 -555 0
83 91 175 556 0
-83 -91 -175 -556 0
85 93 177 557 0
-85 -93 -177 -557 0
87 95 179 558 0
-87 -95 -179 -558 0
89 97 181 559 0
-89 -97 -181 -559 0
91 99 183 560 0
-91 -99 -183 -560 0
101 109 185 561 0
-101 -109 -185 -561 0
103 111 187 562 0
-103 -111 -187 -562 0
105 113 189 563 0
-105 -113 -189 -563 0
107 115 191 564 0
-107 -115 -191 -564 0
109 117 193 565 0
-109 -117 -193 -565 0
111 119 195 566 0
-111 -119 -195 -566 0
113 121 197 567 0
-113 -121 -197 -567 0
115 123 199 568 0
-115 -123 -199 -568 0
125 133 201 569 0
-125 -133 -201 -569 0
127 135 203 570 0
-127 -135 -203 -570 0
129 137 205 571 0
-129 -137 -205 -571 0
131 139 207 572 0
-131 -139 -207 -572 0
133 141 209 573 0
-133 -141 -209 -573 0
135 143 211 574 0
-135 -143 -211 -574 0
137 145 213 575 0
-137 -145 -213 -575 0
147 155 215 576 0
-147 -155 -215 -576 0
149 157 217 577 0
-149 -157 -217 -577 0
151 159 219 578 0
-151 -159 -219 -578 0
153 161 221 579 0
-153 -161 -221 -579 0
155 163 223 580 0
-155 -163 -223 -580 0
157 165 225 581 0
-157 -165 -225 -581 0
167 175 227 582 0
-167 -175 -227 -582 0
169 177 229 583 0
-169 -177 -229 -583 0
171 179 231 584 0
-171 -179 -231 -584 0
173 181 233 585 0
-173 -181 -233 -585 0
175 183 235 586 0
-175 -183 -235 -586 0
185 193 237 587 0
-185 -193 -237 -587 0
187 195 239 588 0
-187 -195 -239 -588 0
189 197 241 589 0
-189 -197 -241 -589 0
191 199 243 590 0
-191 -199 -243 -590 0
201 209 245 591 0
-201 -209 -245 -591 0
203 211 247 592 0
-203 -211 -247 -592 0
205 213 249 593 0
-205 -213 -249 -593 0
215 223 251 594 0
-215 -223 -251 -594 0
217 225 253 595 0
-217 -225 -253 -595 0
227 235 255 596 0
-227 -235 -255 -596 0
257 261 307 597 0
-257 -261 -307 -597 0
258 262 308 598 0
-258 -262 -308 -598 0
259 263 309 599 0
-259 -263 -309 -599 0
260 264 310 600 0
-260 -264 -310 -600 0
261 265 311 601 0
-261 -265 -311 -601 0
262 266 312 602 0
-262 -266 -312 -602 0
263 267 313 603 0
-263 -267 -313 -603 0
264 268 314 604 0
-264 -268 -314 -604 0
265 269 315 605 0
-265 -269 -315 -605 0
266 270 316 606 0
-266 -270 -316 -606 0
271 275 317 607 0
-271 -275 -317 -607 0
272 276 318 608 0
-272 -276 -318 -608 0
273 277 319 609 0
-273 -277 -319 -609 0
274 278 320 610 0
-274 -278 -320 -610 0
275 279 321 611 0
-275 -279 -321 -611 0
276 280 322 612 0
-276 -280 -322 -612 0
277 281 323 613 0
-277 -281 -323 -613 0
278 282 324 614 0
-278 -282 -324 -614 0
279 283 325 615 0
-279 -283 -325 -615 0
284 288 326 616 0
-284 -288 -326 -616 0
285 289 327 617 0
-285 -289 -327 -617 0
286 290 328 618 0
-286 -290 -328 -618 0
287 291 329 619 0
-287 -291 -329 -619 0
288 292 330 620 0
-288 -292 -330 -620 0
289 293 331 621 0
-289 -293 -331 -621 0
290 294 332 622 0
-290 -294 -332 -622 0
291 295 333 623 0
-291 -295 -333 -623 0
296 300 334 624 0
-296 -300 -334 -624 0
297 301 335 625 0
-297 -301 -335 -625 0
298 302 336 626 0
-298 -302 -336 -626 0
299 303 337 627 0
-299 -303 -337 -627 0
300 304 338 628 0
-300 -304 -338 -628 0
301 305 339 629 0
-301 -305 -339 -629 0
302 306 340 630 0
-302 -306 -340 -630 0
307 311 341 631 0
-307 -311 -341 -631 0
308 312 342 632 0
-308 -312 -342 -632 0
309 313 343 633 0
-309 -313 -343 -633 0
310 314 344 634 0
-310 -314 -344 -634 0
311 315 345 635 0
-311 -315 -345 -635 0
312 316 346 636 0
-312 -316 -346 -636 0
317 321 347 637 0
-317 -321 -347 -637 0
318 322 348 638 0
-318 -322 -348 -638 0
319 323 349 639 0
-319 -323 -349 -639 0
320 324 350 640 0
-320 -324 -350 -640 0
321 325 351 641 0
-321 -325 -351 -641 0
326 330 352 642 0
-326 -330 -352 -642 0
327 331 353 643 0
-327 -331 -353 -643 0
328 332 354 644 0
-328 -332 -354 -644 0
329 333 355 645 0
-329 -333 -355 -645 0
334 338 356 646 0
-334 -338 -356 -646 0
335 339 357 647 0
-335 -339 -357 -647 0
336 340 358 648 0
-336 -340 -358 -648 0
341 345 359 649 0
-341 -345 -359 -649 0
342 346 360 650 0
-342 -346 -360 -650 0
347 351 361 651 0
-347 -351 -361 -651 0
362 366 408 652 0
-362 -366 -408 -652 0
363 367 409 653 0
-363 -367 -409 -653 0
364 368 410 654 0
-364 -368 -410 -654 0
365 369 411 655 0
-365 -369 -411 -655 0
366 370 412 656 0
-366 -370 -412 -656 0
367 371 413 657 0
-367 -371 -413 -657 0
368 372 414 658 0
-368 -372 -414 -658 0
369 373 415 659 0
-369 -373 -415 -659 0
370 374 416 660 0
-370 -374 -416 -660 0
375 379 417 661 0
-375 -379 -417 -661 0
376 380 418 662 0
-376 -380 -418 -662 0
377 381 419 663 0
-377 -381 -419 -663 0
378 382 420 664 0
-378 -382 -420 -664 0
379 383 421 665 0
-379 -383 -421 -665 0
380 384 422 666 0
-380 -384 -422 -666 0
381 385 423 667 0
-381 -385 -423 -667 0
382 386 424 668 0
-382 -386 -424 -668 0
387 391 425 669 0
-387 -391 -425 -669 0
388 392 426 670 0
-388 -392 -426 -670 0
389 393 427 671 0
-389 -393 -427 -671 0
390 394 428 672 0
-390 -394 -428 -672 0
391 395 429 673 0
-391 -395 -429 -673 0
392 396 430 674 0
-392 -396 -430 -674 0
393 397 431 675 0
-393 -397 -431 -675 0
398 402 432 676 0
-398 -402 -432 -676 0
399 403 433 677 0
-399 -403 -433 -677 0
400 404 434 678 0
-400 -404 -434 -678 0
401 405 435 679 0
-401 -405 -435 -679 0
402 406 436 680 0
-402 -406 -436 -680 0
403 407 437 681 0
-403 -407 -437 -681 0
408 412 438 682 0
-408 -412 -438 -682 0
409 413 439 683 0
-409 -413 -439 -683 0
410 414 440 684 0
-410 -414 -440 -684 0
411 415 441 685 0
-411 -415 -441 -685 0
412 416 442 686 0
-412 -416 -442 -686 0
417 421 443 687 0
-417 -421 -443 -687 0
418 422 444 688 0
-418 -422 -444 -688 0
419 423 445 689 0
-419 -423 -445 -689 0
420 424 446 690 0
-420 -424 -446 -690 0
425 429 447 691 0
-425 -429 -447 -691 0
426 430 448 692 0
-426 -430 -448 -692 0
427 431 449 693 0
-427 -431 -449 -693 0
432 436 450 694 0
-432 -436 -450 -694 0
433 437 451 695 0
-433 -437 -451 -695 0
438 442 452 696 0
-438 -442 -452 -696 0
453 457 495 697 0
-453 -457 -495 -697 0
454 458 496 698 0
-454 -458 -496 -698 0
455 459 497 699 0
-455 -459 -497 -699 0
456 460 498 700 0
-456 -460 -498 -700 0
457 461 499 701 0
-457 -461 -499 -701 0
458 462 500 702 0
-458 -462 -500 -702 0
459 463 501 703 0
-459 -463 -501 -703 0
460 464 502 704 0
-460 -464 -502 -704 0
465 469 503 705 0
-465 -469 -503 -705 0
466 470 504 706 0
-466 -470 -504 -706 0
467 471 505 707 0
-467 -471 -505 -707 0
468 472 506 708 0
-468 -472 -506 -708 0
469 473 507 709 0
-469 -473 -507 -709 0
470 474 508 710 0
-470 -474 -508 -710 0
471 475 509 711 0
-471 -475 -509 -711 0
476 480 510 712 0
-476 -480 -510 -712 0
477 481 511 713 0
-477 -481 -511 -713 0
478 482 512 714 0
-478 -482 -512 -714 0
479 483 513 715 0
-479 -483 -513 -715 0
480 484 514 716 0
-480 -484 -514 -716 0
481 485 515 717 0
-481 -485 -515 -717 0
486 490 516 718 0
-486 -490 -516 -718 0
487 491 517 719 0
-487 -491 -517 -719 0
488 492 518 720 0
-488 -492 -518 -720 0
489 493 519 721 0
-489 -493 -519 -721 0
490 494 520 722 0
-490 -494 -520 -722 0
495 499 521 723 0
-495 -499 -521 -723 0
496 500 522 724 0
-496 -500 -522 -724 0
497 501 523 725 0
-497 -501 -523 -725 0
498 502 524 726 0
-498 -502 -524 -726 0
503 507 525 727 0
-503 -507 -525 -727 0
504 508 526 728 0
-504 -508 -526 -728 0
505 509 527 729 0
-505 -509 -527 -729 0
510 514 528 730 0
-510 -514 -528 -730 0
511 515 529 731 0
-511 -515 -529 -731 0
516 520 530 732 0
-516 -520 -530 -732 0
531 535 569 733 0
-531 -535 -569 -733 0
532 536 570 734 0
-532 -536 -570 -734 0
533 537 571 735 0
-533 -537 -571 -735 0
534 538 572 736 0
-534 -538 -572 -736 0
535 539 573 737 0
-535 -539 -573 -737 0
536 540 574 738 0
-536 -540 -574 -738 0
537 541 575 739 0
-537 -541 -575 -739 0
542 546 576 740 0
-542 -546 -576 -740 0
543 547 577 741 0
-543 -547 -577 -741 0
544 548 578 742 0
-544 -548 -578 -742 0
545 549 579 743 0
-545 -549 -579 -743 0
546 550 580 744 0
-546 -550 -580 -744 0
547 551 581 745 0
-547 -551 -581 -745 0
552 556 582 746 0
-552 -556 -582 -746 0
553 557 583 747 0
-553 -557 -583 -747 0
554 558 584 748 0
-554 -558 -584 -748 0
555 559 585 749 0
-555 -559 -585 -749 0
556 560 586 750 0
-556 -560 -586 -750 0
561 565 587 751 0
-561 -565 -587 -751 0
562 566 588 752 0
-562 -566 -588 -752 0
563 567 589 753 0
-563 -567 -589 -753 0
564 568 590 754 0
-564 -568 -590 -754 0
569 573 591 755 0
-569 -573 -591 -755 0
570 574 592 756 0
-570 -574 -592 -756 0
571 575 593 757 0
-571 -575 -593 -757 0
576 580 594 758 0
-576 -580 -594 -758 0
577 581 595 759 0
-577 -581 -595 -759 0
582 586 596 760 0
-582 -586 -596 -760 0
597 601 631 761 0
-597 -601 -631 -761 0
598 602 632 762 0
-598 -602 -632 -762 0
599 603 633 763 0
-599 -603 -633 -763 0
600 604 634 764 0
-600 -604 -634 -764 0
601 605 635 765 0
-601 -605 -635 -765 0
602 606 636 766 0
-602 -606 -636 -766 0
607 611 637 767 0
-607 -611 -637 -767 0
608 612 638 768 0
-608 -612 -638 -768 0
609 613 639 769 0
-609 -613 -639 -769 0
610 614 640 770 0
-610 -614 -640 -770 0
611 615 641 771 0
-611 -615 -641 -771 0
616 620 642 772 0
-616 -620 -642 -772 0
617 621 643 773 0
-617 -621 -643 -773 0
618 622 644 774 0
-618 -622 -644 -774 0
619 623 645 775 0
-619 -623 -645 -775 0
624 628 646 776 0
-624 -628 -646 -776 0
625 629 647 777 0
-625 -629 -647 -777 0
626 630 648 778 0
-626 -630 -648 -778 0
631 635 649 779 0
-631 -635 -649 -779 0
632 636 650 780 0
-632 -636 -650 -780 0
637 641 651 781 0
-637 -641 -651 -781 0
652 656 682 782 0
-652 -656 -682 -782 0
653 657 683 783 0
-653 -657 -683 -783 0
654 658 684 784 0
-654 -658 -684 -784 0
655 659 685 785 0
-655 -659 -685 -785 0
656 660 686 786 0
-656 -660 -686 -786 0
661 665 687 787 0
-661 -665 -687 -787 0
662 666 688 788 0
-662 -666 -688 -788 0
663 667 689 789 0
-663 -667 -689 -789 0
664 668 690 790 0
-664 -668 -690 -790 0
669 673 691 791 0
-669 -673 -691 -791 0
670 674 692 792 0
-670 -674 -692 -792 0
671 675 693 793 0
-671 -675 -693 -793 0
676 680 694 794 0
-676 -680 -694 -794 0
677 681 695 795 0
-677 -681 -695 -795 0
682 686 696 796 0
-682 -686 -696 -796 0
697 701 723 797 0
-697 -701 -723 -797 0
698 702 724 798 0
-698 -702 -724 -798 0
699 703 725 799 0
-699 -703 -725 -799 0
700 704 726 800 0
-700 -704 -726 -800 0
705 709 727 801 0
-705 -709 -727 -801 0
706 710 728 802 0
-706 -710 -728 -802 0
707 711 729 803 0
-707 -711 -729 -803 0
712 716 730 804 0
-712 -716 -730 -804 0
713 717 731 805 0
-713 -717 -731 -805 0
718 722 732 806 0
-718 -722 -732 -806 0
733 737 755 807 0
-733 -737 -755 -807 0
734 738 756 808 0
-734 -738 -756 -808 0
735 739 757 809 0
-735 -739 -757 -809 0
740 744 758 810 0
-740 -744 -758 -810 0
741 745 759 811 0
-741 -745 -759 -811 0
746 750 760 812 0
-746 -750 -760 -812 0
761 765 779 813 0
-761 -765 -779 -813 0
762 766 780 814 0
-762 -766 -780 -814 0
767 771 781 815 0
-767 -771 -781 -815 0
782 786 796 816 0
-782 -786 -796 -816 0
4 16 126 531 0
-4 -16 -126 -531 0
3 19 128 532 0
-3 -19 -128 -532 0
7 22 130 533 0
-7 -22 -130 -533 0
10 25 132 534 0
-10 -25 -132 -534 0
13 28 134 535 0
-13 -28 -134 -535 0
16 31 136 536 0
-16 -31 -136 -536 0
19 34 138 537 0
-19 -34 -138 -537 0
22 37 140 538 0
-22 -37 -140 -538 0
25 40 142 539 0
-25 -40 -142 -539 0
28 43 144 540 0
-28 -43 -144 -540 0
31 46 146 541 0
-31 -46 -146 -541 0
2 18 148 542 0
-2 -18 -148 -542 0
6 21 150 543 0
-6 -21 -150 -543 0
9 24 152 544 0
-9 -24 -152 -544 0
12 27 154 545 0
-12 -27 -154 -545 0
15 30 156 546 0
-15 -30 -156 -546 0
18 33 158 547 0
-18 -33 -158 -547 0
21 36 160 548 0
-21 -36 -160 -548 0
24 39 162 549 0
-24 -39 -162 -549 0
27 42 164 550 0
-27 -42 -164 -550 0
30 45 166 551 0
-30 -45 -166 -551 0
48 58 168 552 0
-48 -58 -168 -552 0
50 60 170 553 0
-50 -60 -170 -553 0
52 62 172 554 0
-52 -62 -172 -554 0
54 64 174 555 0
-54 -64 -174 -555 0
56 66 176 556 0
-56 -66 -176 -556 0
58 68 178 557 0
-58 -68 -178 -557 0
60 70 180 558 0
-60 -70 -180 -558 0
62 72 182 559 0
-62 -72 -182 -559 0
64 74 184 560 0
-64 -74 -184 -560 0
76 86 186 561 0
-76 -86 -186 -561 0
78 88 188 562 0
-78 -88 -188 -562 0
80 90 190 563 0
-80 -90 -190 -563 0
82 92 192 564 0
-82 -92 -192 -564 0
84 94 194 565 0
-84 -94 -194 -565 0
86 96 196 566 0
-86 -96 -196 -566 0
88 98 198 567 0
-88 -98 -198 -567 0
90 100 200 568 0
-90 -100 -200 -568 0
102 112 202 569 0
-102 -112 -202 -569 0
104 114 204 570 0
-104 -114 -204 -570 0
106 116 206 571 0
-106 -116 -206 -571 0
108 118 208 572 0
-108 -118 -208 -572 0
110 120 210 573 0
-110 -120 -210 -573 0
112 122 212 574 0
-112 -122 -212 -574 0
114 124 214 575 0
-114 -124 -214 -575 0
126 136 216 576 0
-126 -136 -216 -576 0
128 138 218 577 0
-128 -138 -218 -577 0
130 140 220 578 0
-130 -140 -220 -578 0
132 142 222 579 0
-132 -142 -222 -579 0
134 144 224 580 0
-134 -144 -224 -580 0
136 146 226 581 0
-136 -146 -226 -581 0
148 158 228 582 0
-148 -158 -228 -582 0
150 160 230 583 0
-150 -160 -230 -583 0
152 162 232 584 0
-152 -162 -232 -584 0
154 164 234 585 0
-154 -164 -234 -585 0
156 166 236 586 0
-156 -166 -236 -586 0
168 178 238 587 0
-168 -178 -238 -587 0
170 180 240 588 0
-170 -180 -240 -588 0
172 182 242 589 0
-172 -182 -242 -589 0
174 184 244 590 0
-174 -184 -244 -590 0
186 196 246 591 0
-186 -196 -246 -591 0
188 198 248 592 0
-188 -198 -248 -592 0
190 200 250 593 0
-190 -200 -250 -593 0
202 212 252 594 0
-202 -212 -252 -594 0
204 214 254 595 0
-204 -214 -254 -595 0
216 226 256 596 0
-216 -226 -256 -596 0
1 17 147 597 0
-1 -17 -147 -597 0
5 20 149 598 0
-5 -20 -149 -598 0
8 23 151 599 0
-8 -23 -151 -599 0
11 26 153 600 0
-11 -26 -153 -600 0
14 29 155 601 0
-14 -29 -155 -601 0
17 32 157 602 0
-17 -32 -157 -602 0
20 35 159 603 0
-20 -35 -159 -603 0
23 38 161 604 0
-23 -38 -161 -604 0
26 41 163 605 0
-26 -41 -163 -605 0
29 44 165 606 0
-29 -44 -165 -606 0
47 57 167 607 0
-47 -57 -167 -607 0
49 59 169 608 0
-49 -59 -169 -608 0
51 61 171 609 0
-51 -61 -171 -609 0
53 63 173 610 0
-53 -63 -173 -610 0
55 65 175 611 0
-55 -65 -175 -611 0
57 67 177 612 0
-57 -67 -177 -612 0
59 69 179 613 0
-59 -69 -179 -613 0
61 71 181 614 0
-61 -71 -181 -614 0
63 73 183 615 0
-63 -73 -183 -615 0
75 85 185 616 0
-75 -85 -185 -616 0
77 87 187 617 0
-77 -87 -187 -617 0
79 89 189 618 0
-79 -89 -189 -618 0
81 91 191 619 0
-81 -91 -191 -619 0
83 93 193 620 0
-83 -93 -193 -620 0
85 95 195 621 0
-85 -95 -195 -621 0
87 97 197 622 0
-87 -97 -197 -622 0
89 99 199 623 0
-89 -99 -199 -623 0
101 111 201 624 0
-101 -111 -201 -624 0
103 113 203 625 0
-103 -113 -203 -625 0
105 115 205 626 0
-105 -115 -205 -626 0
107 117 207 627 0
-107 -117 -207 -627 0
109 119 209 628 0
-109 -119 -209 -628 0
111 121 211 629 0
-111 -121 -211 -629 0
113 123 213 630 0
-113 -123 -213 -630 0
125 135 215 631 0
-125 -135 -215 -631 0
127 137 217 632 0
-127 -137 -217 -632 0
129 139 219 633 0
-129 -139 -219 -633 0
131 141 221 634 0
-131 -141 -221 -634 0
133 143 223 635 0
-133 -143 -223 -635 0
135 145 225 636 0
-135 -145 -225 -636 0
147 157 227 637 0
-147 -157 -227 -637 0
149 159 229 638 0
-149 -159 -229 -638 0
151 161 231 639 0
-151 -161 -231 -639 0
153 163 233 640 0
-153 -163 -233 -640 0
155 165 235 641 0
-155 -165 -235 -641 0
167 177 237 642 0
-167 -177 -237 -642 0
169 179 239 643 0
-169 -179 -239 -643 0
171 181 241 644 0
-171 -181 -241 -644 0
173 183 243 645 0
-173 -183 -243 -645 0
185 195 245 646 0
-185 -195 -245 -646 0
187 197 247 647 0
-187 -197 -247 -647 0
189 199 249 648 0
-189 -199 -249 -648 0
201 211 251 649 0
-201 -211 -251 -649 0
203 213 253 650 0
-203 -213 -253 -650 0
215 225 255 651 0
-215 -225 -255 -651 0
257 262 317 652 0
-257 -262 -317 -652 0
258 263 318 653 0
-258 -263 -318 -653 0
259 264 319 654 0
-259 -264 -319 -654 0
260 265 320 655 0
-260 -265 -320 -655 0
261 266 321 656 0
-261 -266 -321 -656 0
262 267 322 657 0
-262 -267 -322 -657 0
263 268 323 658 0
-263 -268 -323 -658 0
264 269 324 659 0
-264 -269 -324 -659 0
265 270 325 660 0
-265 -270 -325 -660 0
271 276 326 661 0
-271 -276 -326 -661 0
272 277 327 662 0
-272 -277 -327 -662 0
273 278 328 663 0
-273 -278 -328 -663 0
274 279 329 664 0
-274 -279 -329 -664 0
275 280 330 665 0
-275 -280 -330 -665 0
276 281 331 666 0
-276 -281 -331 -666 0
277 282 332 667 0
-277 -282 -332 -667 0
278 283 333 668 0
-278 -283 -333 -668 0
284 289 334 669 0
-284 -289 -334 -669 0
285 290 335 670 0
-285 -290 -335 -670 0
286 291 336 671 0
-286 -291 -336 -671 0
287 292 337 672 0
-287 -292 -337 -672 0
288 293 338 673 0
-288 -293 -338 -673 0
289 294 339 674 0
-289 -294 -339 -674 0
290 295 340 675 0
-290 -295 -340 -675 0
296 301 341 676 0
-296 -301 -341 -676 0
297 302 342 677 0
-297 -302 -342 -677 0
298 303 343 678 0
-298 -303 -343 -678 0
299 304 344 679 0
-299 -304 -344 -679 0
300 305 345 680 0
-300 -305 -345 -680 0
301 306 346 681 0
-301 -306 -346 -681 0
307 312 347 682 0
-307 -312 -347 -682 0
308 313 348 683 0
-308 -313 -348 -683 0
309 314 349 684 0
-309 -314 -349 -684 0
310 315 350 685 0
-310 -315 -350 -685 0
311 316 351 686 0
-311 -316 -351 -686 0
317 322 352 687 0
-317 -322 -352 -687 0
318 323 353 688 0
-318 -323 -353 -688 0
319 324 354 689 0
-319 -324 -354 -689 0
320 325 355 690 0
-320 -325 -355 -690 0
326 331 356 691 0
-326 -331 -356 -691 0
327 332 357 692 0
-327 -332 -357 -692 0
328 333 358 693 0
-328 -333 -358 -693 0
334 339 359 694 0
-334 -339 -359 -694 0
335 340 360 695 0
-335 -340 -360 -695 0
341 346 361 696 0
-341 -346 -361 -696 0
362 367 417 697 0
-362 -367 -417 -697 0
363 368 418 698 0
-363 -368 -418 -698 0
364 369 419 699 0
-364 -369 -419 -699 0
365 370 420 700 0
-365 -370 -420 -700 0
366 371 421 701 0
-366 -371 -421 -701 0
367 372 422 702 0
-367 -372 -422 -702 0
368 373 423 703 0
-368 -373 -423 -703 0
369 374 424 704 0
-369 -374 -424 -704 0
375 380 425 705 0
-375 -380 -425 -705 0
376 381 426 706 0
-376 -381 -426 -706 0
377 382 427 707 0
-377 -382 -427 -707 0
378 383 428 708 0
-378 -383 -428 -708 0
379 384 429 709 0
-379 -384 -429 -709 0
380 385 430 710 0
-380 -385 -430 -710 0
381 386 431 711 0
-381 -386 -431 -711 0
387 392 432 712 0
-387 -392 -432 -712 0
388 393 433 713 0
-388 -393 -433 -713 0
389 394 434 714 0
-389 -394 -434 -714 0
390 395 435 715 0
-390 -395 -435 -715 0
391 396 436 716 0
-391 -396 -436 -716 0
392 397 437 717 0
-392 -397 -437 -717 0
398 403 438 718 0
-398 -403 -438 -718 0
399 404 439 719 0
-399 -404 -439 -719 0
400 405 440 720 0
-400 -405 -440 -720 0
401 406 441 721 0
-401 -406 -441 -721 0
402 407 442 722 0
-402 -407 -442 -722 0
408 413 443 723 0
-408 -413 -443 -723 0
409 414 444 724 0
-409 -414 -444 -724 0
410 415 445 725 0
-410 -415 -445 -725 0
411 416 446 726 0
-411 -416 -446 -726 0
417 422 447 727 0
-417 -422 -447 -727 0
418 423 448 728 0
-418 -423 -448 -728 0
419 424 449 729 0
-419 -424 -449 -729 0
425 430 450 730 0
-425 -430 -450 -730 0
426 431 451 731 0
-426 -431 -451 -731 0
432 437 452 732 0
-432 -437 -452 -732 0
453 458 503 733 0
-453 -458 -503 -733 0
454 459 504 734 0
-454 -459 -504 -734 0
455 460 505 735 0
-455 -460 -505 -735 0
456 461 506 736 0
-456 -461 -506 -736 0
457 462 507 737 0
-457 -462 -507 -737 0
458 463 508 738 0
-458 -463 -508 -738 0
459 464 509 739 0
-459 -464 -509 -739 0
465 470 510 740 0
-465 -470 -510 -740 0
466 471 511 741 0
-466 -471 -511 -741 0
467 472 512 742 0
-467 -472 -512 -742 0
468 473 513 743 0
-468 -473 -513 -743 0
469 474 514 744 0
-469 -474 -514 -744 0
470 475 515 745 0
-470 -475 -515 -745 0
476 481 516 746 0
-476 -481 -516 -746 0
477 482 517 747 0
-477 -482 -517 -747 0
478 483 518 748 0
-478 -483 -518 -748 0
479 484 519 749 0
-479 -484 -519 -749 0
480 485 520 750 0
-480 -485 -520 -750 0
486 491 521 751 0
-486 -491 -521 -751 0
487 492 522 752 0
-487 -492 -522 -752 0
488 493 523 753 0
-488 -493 -523 -753 0
489 494 524 754 0
-489 -494 -524 -754 0
495 500 525 755 0
-495 -500 -525 -755 0
496 501 526 756 0
-496 -501 -526 -756 0
497 502 527 757 0
-497 -502 -527 -757 0
503 508 528 758 0
-503 -508 -528 -758 0
504 509 529 759 0
-504 -509 -529 -759 0
510 515 530 760 0
-510 -515 -530 -760 0
531 536 576 761 0
-531 -536 -576 -761 0
532 537 577 762 0
-532 -537 -577 -762 0
533 538 578 763 0
-533 -538 -578 -763 0
534 539 579 764 0
-534 -539 -579 -764 0
535 540 580 765 0
-535 -540 -580 -765 0
536 541 581 766 0
-536 -541 -581 -766 0
542 547 582 767 0
-542 -547 -582 -767 0
543 548 583 768 0
-543 -548 -583 -768 0
544 549 584 769 0
-544 -549 -584 -769 0
545 550 585 770 0
-545 -550 -585 -770 0
546 551 586 771 0
-546 -551 -586 -771 0
552 557 587 772 0
-552 -557 -587 -772 0
553 558 588 773 0
-553 -558 -588 -773 0
554 559 589 774 0
-554 -559 -589 -774 0
555 560 590 775 0
-555 -560 -590 -775 0
561 566 591 776 0
-561 -566 -591 -776 0
562 567 592 777 0
-562 -567 -592 -777 0
563 568 593 778 0
-563 -568 -593 -778 0
569 574 594 779 0
-569 -574 -594 -779 0
570 575 595 780 0
-570 -575 -595 -780 0
576 581 596 781 0
-576 -581 -596 -781 0
597 602 637 782 0
-597 -602 -637 -782 0
598 603 638 783 0
-598 -603 -638 -783 0
599 604 639 784 0
-599 -604 -639 -784 0
600 605 640 785 0
-600 -605 -640 -785 0
601 606 641 786 0
-601 -606 -641 -786 0
607 612 642 787 0
-607 -612 -642 -787 0
608 613 643 788 0
-608 -613 -643 -788 0
609 614 644 789 0
-609 -614 -644 -789 0
610 615 645 790 0
-610 -615 -645 -790 0
616 621 646 791 0
-616 -621 -646 -791 0
617 622 647 792 0
-617 -622 -647 -792 0
618 623 648 793 0
-618 -623 -648 -793 0
624 629 649 794 0
-624 -629 -649 -794 0
625 630 650 795 0
-625 -630 -650 -795 0
631 636 651 796 0
-631 -636 -651 -796 0
652 657 687 797 0
-652 -657 -687 -797 0
653 658 688 798 0
-653 -658 -688 -798 0
654 659 689 799 0
-654 -659 -689 -799 0
655 660 690 800 0
-655 -660 -690 -800 0
661 666 691 801 0
-661 -666 -691 -801 0
662 667 692 802 0
-662 -667 -692 -802 0
663 668 693 803 0
-663 -668 -693 -803 0
669 674 694 804 0
-669 -674 -694 -804 0
670 675 695 805 0
-670 -675 -695 -805 0
676 681 696 806 0
-676 -681 -696 -806 0
697 702 727 807 0
-697 -702 -727 -807 0
698 703 728 808 0
-698 -703 -728 -808 0
699 704 729 809 0
-699 -704 -729 -809 0
705 710 730 810 0
-705 -710 -730 -810 0
706 711 731 811 0
-706 -711 -731 -811 0
712 717 732 812 0
-712 -717 -732 -812 0
733 738 758 813 0
-733 -738 -758 -813 0
734 739 759 814 0
-734 -739 -759 -814 0
740 745 760 815 0
-740 -745 -760 -815 0
761 766 781 816 0
-761 -766 -781 -816 0
4 19 148 597 0
-4 -19 -148 -597 0
3 22 150 598 0
-3 -22 -150 -598 0
7 25 152 599 0
-7 -25 -152 -599 0
10 28 154 600 0
-10 -28 -154 -600 0
13 31 156 601 0
-13 -31 -156 -601 0
16 34 158 602 0
-16 -34 -158 -602 0
19 37 160 603 0
-19 -37 -160 -603 0
22 40 162 604 0
-22 -40 -162 -604 0
25 43 164 605 0
-25 -43 -164 -605 0
28 46 166 606 0
-28 -46 -166 -606 0
2 21 168 607 0
-2 -21 -168 -607 0
6 24 170 608 0
-6 -24 -170 -608 0
9 27 172 609 0
-9 -27 -172 -609 0
12 30 174 610 0
-12 -30 -174 -610 0
15 33 176 611 0
-15 -33 -176 -611 0
18 36 178 612 0
-18 -36 -178 -612 0
21 39 180 613 0
-21 -39 -180 -613 0
24 42 182 614 0
-24 -42 -182 -614 0
27 45 184 615 0
-27 -45 -184 -615 0
48 60 186 616 0
-48 -60 -186 -616 0
50 62 188 617 0
-50 -62 -188 -617 0
52 64 190 618 0
-52 -64 -190 -618 0
54 66 192 619 0
-54 -66 -192 -619 0
56 68 194 620 0
-56 -68 -194 -620 0
58 70 196 621 0
-58 -70 -196 -621 0
60 72 198 622 0
-60 -72 -198 -622 0
62 74 200 623 0
-62 -74 -200 -623 0
76 88 202 624 0
-76 -88 -202 -624 0
78 90 204 625 0
-78 -90 -204 -625 0
80 92 206 626 0
-80 -92 -206 -626 0
82 94 208 627 0
-82 -94 -208 -627 0
84 96 210 628 0
-84 -96 -210 -628 0
86 98 212 629 0
-86 -98 -212 -629 0
88 100 214 630 0
-88 -100 -214 -630 0
102 114 216 631 0
-102 -114 -216 -631 0
104 116 218 632 0
-104 -116 -218 -632 0
106 118 220 633 0
-106 -118 -220 -633 0
108 120 222 634 0
-108 -120 -222 -634 0
110 122 224 635 0
-110 -122 -224 -635 0
112 124 226 636 0
-112 -124 -226 -636 0
126 138 228 637 0
-126 -138 -228 -637 0
128 140 230 638 0
-128 -140 -230 -638 0
130 142 232 639 0
-130 -142 -232 -639 0
132 144 234 640 0
-132 -144 -234 -640 0
134 146 236 641 0
-134 -146 -236 -641 0
148 160 238 642 0
-148 -160 -238 -642 0
150 162 240 643 0
-150 -162 -240 -643 0
152 164 242 644 0
-152 -164 -242 -644 0
154 166 244 645 0
-154 -166 -244 -645 0
168 180 246 646 0
-168 -180 -246 -646 0
170 182 248 647 0
-170 -182 -248 -647 0
172 184 250 648 0
-172 -184 -250 -648 0
186 198 252 649 0
-186 -198 -252 -649 0
188 200 254 650 0
-188 -200 -254 -650 0
202 214 256 651 0
-202 -214 -256 -651 0
1 20 167 652 0
-1 -20 -167 -652 0
5 23 169 653 0
-5 -23 -169 -653 0
8 26 171 654 0
-8 -26 -171 -654 0
11 29 173 655 0
-11 -29 -173 -655 0
14 32 175 656 0
-14 -32 -175 -656 0
17 35 177 657 0
-17 -35 -177 -657 0
20 38 179 658 0
-20 -38 -179 -658 0
23 41 181 659 0
-23 -41 -181 -659 0
26 44 183 660 0
-26 -44 -183 -660 0
47 59 185 661 0
-47 -59 -185 -661 0
49 61 187 662 0
-49 -61 -187 -662 0
51 63 189 663 0
-51 -63 -189 -663 0
53 65 191 664 0
-53 -65 -191 -664 0
55 67 193 665 0
-55 -67 -193 -665 0
57 69 195 666 0
-57 -69 -195 -666 0
59 71 197 667 0
-59 -71 -197 -667 0
61 73 199 668 0
-61 -73 -199 -668 0
75 87 201 669 0
-75 -87 -201 -669 0
77 89 203 670 0
-77 -89 -203 -670 0
79 91 205 671 0
-79 -91 -205 -671 0
81 93 207 672 0
-81 -93 -207 -672 0
83 95 209 673 0
-83 -95 -209 -673 0
85 97 211 674 0
-85 -97 -211 -674 0
87 99 213 675 0
-87 -99 -213 -675 0
101 113 215 676 0
-101 -113 -215 -676 0
103 115 217 677 0
-103 -115 -217 -677 0
105 117 219 678 0
-105 -117 -219 -678 0
107 119 221 679 0
-107 -119 -221 -679 0
109 121 223 680 0
-109 -121 -223 -680 0
111 123 225 681 0
-111 -123 -225 -681 0
125 137 227 682 0
-125 -137 -227 -682 0
127 139 229 683 0
-127 -139 -229 -683 0
129 141 231 684 0
-129 -141 -231 -684 0
131 143 233 685 0
-131 -143 -233 -685 0
133 145 235 686 0
-133 -145 -235 -686 0
147 159 237 687 0
-147 -159 -237 -687 0
149 161 239 688 0
-149 -161 -239 -688 0
151 163 241 689 0
-151 -163 -241 -689 0
153 165 243 690 0
-153 -165 -243 -690 0
167 179 245 691 0
-167 -179 -245 -691 0
169 181 247 692 0
-169 -181 -247 -692 0
171 183 249 693 0
-171 -183 -249 -693 0
185 197 251 694 0
-185 -197 -251 -694 0
187 199 253 695 0
-187 -199 -253 -695 0
201 213 255 696 0
-201 -213 -255 -696 0
257 263 326 697 0
-257 -263 -326 -697 0
258 264 327 698 0
-258 -264 -327 -698 0
259 265 328 699 0
-259 -265 -328 -699 0
260 266 329 700 0
-260 -266 -329 -700 0
261 267 330 701 0
-261 -267 -330 -701 0
262 268 331 702 0
-262 -268 -331 -702 0
263 269 332 703 0
-263 -269 -332 -703 0
264 270 333 704 0
-264 -270 -333 -704 0
271 277 334 705 0
-271 -277 -334 -705 0
272 278 335 706 0
-272 -278 -335 -706 0
273 279 336 707 0
-273 -279 -336 -707 0
274 280 337 708 0
-274 -280 -337 -708 0
275 281 338 709 0
-275 -281 -338 -709 0
276 282 339 710 0
-276 -282 -339 -710 0
277 283 340 711 0
-277 -283 -340 -711 0
284 290 341 712 0
-284 -290 -341 -712 0
285 291 342 713 0
-285 -291 -342 -713 0
286 292 343 714 0
-286 -292 -343 -714 0
287 293 344 715 0
-287 -293 -344 -715 0
288 294 345 716 0
-288 -294 -345 -716 0
289 295 346 717 0
-289 -295 -346 -717 0
296 302 347 718 0
-296 -302 -347 -718 0
297 303 348 719 0
-297 -303 -348 -719 0
298 304 349 720 0
-298 -304 -349 -720 0
299 305 350 721 0
-299 -305 -350 -721 0
300 306 351 722 0
-300 -306 -351 -722 0
307 313 352 723 0
-307 -313 -352 -723 0
308 314 353 724 0
-308 -314 -353 -724 0
309 315 354 725 0
-309 -315 -354 -725 0
310 316 355 726 0
-310 -316 -355 -726 0
317 323 356 727 0
-317 -323 -356 -727 0
318 324 357 728 0
-318 -324 -357 -728 0
319 325 358 729 0
-319 -325 -358 -729 0
326 332 359 730 0
-326 -332 -359 -730 0
327 333 360 731 0
-327 -333 -360 -731 0
334 340 361 732 0
-334 -340 -361 -732 0
362 368 425 733 0
-362 -368 -425 -733 0
363 369 426 734 0
-363 -369 -426 -734 0
364 370 427 735 0
-364 -370 -427 -735 0
365 371 428 736 0
-365 -371 -428 -736 0
366 372 429 737 0
-366 -372 -429 -737 0
367 373 430 738 0
-367 -373 -430 -738 0
368 374 431 739 0
-368 -374 -431 -739 0
375 381 432 740 0
-375 -381 -432 -740 0
376 382 433 741 0
-376 -382 -433 -741 0
377 383 434 742 0
-377 -383 -434 -742 0
378 384 435 743 0
-378 -384 -435 -743 0
379 385 436 744 0
-379 -385 -436 -744 0
380 386 437 745 0
-380 -386 -437 -745 0
387 393 438 746 0
-387 -393 -438 -746 0
388 394 439 747 0
-388 -394 -439 -747 0
389 395 440 748 0
-389 -395 -440 -748 0
390 396 441 749 0
-390 -396 -441 -749 0
391 397 442 750 0
-391 -397 -442 -750 0
398 404 443 751 0
-398 -404 -443 -751 0
399 405 444 752 0
-399 -405 -444 -752 0
400 406 445 753 0
-400 -406 -445 -753 0
401 407 446 754 0
-401 -407 -446 -754 0
408 414 447 755 0
-408 -414 -447 -755 0
409 415 448 756 0
-409 -415 -448 -756 0
410 416 449 757 0
-410 -416 -449 -757 0
417 423 450 758 0
-417 -423 -450 -758 0
418 424 451 759 0
-418 -424 -451 -759 0
425 431 452 760 0
-425 -431 -452 -760 0
453 459 510 761 0
-453 -459 -510 -761 0
454 460 511 762 0
-454 -460 -511 -762 0
455 461 512 763 0
-455 -461 -512 -763 0
456 462 513 764 0
-456 -462 -513 -764 0
457 463 514 765 0
-457 -463 -514 -765 0
458 464 515 766 0
-458 -464 -515 -766 0
465 471 516 767 0
-465 -471 -516 -767 0
466 472 517 768 0
-466 -472 -517 -768 0
467 473 518 769 0
-467 -473 -518 -769 0
468 474 519 770 0
-468 -474 -519 -770 0
469 475 520 771 0
-469 -475 -520 -771 0
476 482 521 772 0
-476 -482 -521 -772 0
477 483 522 773 0
-477 -483 -522 -773 0
478 484 523 774 0
-478 -484 -523 -774 0
479 485 524 775 0
-479 -485 -524 -775 0
486 492 525 776 0
-486 -492 -525 -776 0
487 493 526 777 0
-487 -493 -526 -777 0
488 494 527 778 0
-488 -494 -527 -778 0
495 501 528 779 0
-495 -501 -528 -779 0
496 502 529 780 0
-496 -502 -529 -780 0
503 509 530 781 0
-503 -509 -530 -781 0
531 537 582 782 0
-531 -537 -582 -782 0
532 538 583 783 0
-532 -538 -583 -783 0
533 539 584 784 0
-533 -539 -584 -784 0
534 540 585 785 0
-534 -540 -585 -785 0
535 541 586 786 0
-535 -541 -586 -786 0
542 548 587 787 0
-542 -548 -587 -787 0
543 549 588 788 0
-543 -549 -588 -788 0
544 550 589 789 0
-544 -550 -589 -789 0
545 551 590 790 0
-545 -551 -590 -790 0
552 558 591 791 0
-552 -558 -591 -791 0
553 559 592 792 0
-553 -559 -592 -792 0
554 560 593 793 0
-554 -560 -593 -793 0
561 567 594 794 0
-561 -567 -594 -794 0
562 568 595 795 0
-562 -568 -595 -795 0
569 575 596 796 0
-569 -575 -596 -796 0
597 603 642 797 0
-597 -603 -642 -797 0
598 604 643 798 0
-598 -604 -643 -798 0
599 605 644 799 0
-599 -605 -644 -799 0
600 606 645 800 0
-600 -606 -645 -800 0
607 613 646 801 0
-607 -613 -646 -801 0
608 614 647 802 0
-608 -614 -647 -802 0
609 615 648 803 0
-609 -615 -648 -803 0
616 622 649 804 0
-616 -622 -649 -804 0
617 623 650 805 0
-617 -623 -650 -805 0
624 630 651 806 0
-624 -630 -651 -806 0
652 658 691 807 0
-652 -658 -691 -807 0
653 659 692 808 0
-653 -659 -692 -808 0
654 660 693 809 0
-654 -660 -693 -809 0
661 667 694 810 0
-661 -667 -694 -810 0
662 668 695 811 0
-662 -668 -695 -811 0
669 675 696 812 0
-669 -675 -696 -812 0
697 703 730 813 0
-697 -703 -730 -813 0
698 704 731 814 0
-698 -704 -731 -814 0
705 711 732 815 0
-705 -711 -732 -815 0
733 739 760 816 0
-733 -739 -760 -816 0
4 22 168 652 0
-4 -22 -168 -652 0
3 25 170 653 0
-3 -25 -170 -653 0
7 28 172 654 0
-7 -28 -172 -654 0
10 31 174 655 0
-10 -31 -174 -655 0
13 34 176 656 0
-13 -34 -176 -656 0
16 37 178 657 0
-16 -37 -178 -657 0
19 40 180 658 0
-19 -40 -180 -658 0
22 43 182 659 0
-22 -43 -182 -659 0
25 46 184 660 0
-25 -46 -184 -660 0
2 24 186 661 0
-2 -24 -186 -661 0
6 27 188 662 0
-6 -27 -188 -662 0
9 30 190 663 0
-9 -30 -190 -663 0
12 33 192 664 0
-12 -33 -192 -664 0
15 36 194 665 0
-15 -36 -194 -665 0
18 39 196 666 0
-18 -39 -196 -666 0
21 42 198 667 0
-21 -42 -198 -667 0
24 45 200 668 0
-24 -45 -200 -668 0
48 62 202 669 0
-48 -62 -202 -669 0
50 64 204 670 0
-50 -64 -204 -670 0
52 66 206 671 0
-52 -66 -206 -671 0
54 68 208 672 0
-54 -68 -208 -672 0
56 70 210 673 0
-56 -70 -210 -673 0
58 72 212 674 0
-58 -72 -212 -674 0
60 74 214 675 0
-60 -74 -214 -675 0
76 90 216 676 0
-76 -90 -216 -676 0
78 92 218 677 0
-78 -92 -218 -677 0
80 94 220 678 0
-80 -94 -220 -678 0
82 96 222 679 0
-82 -96 -222 -679 0
84 98 224 680 0
-84 -98 -224 -680 0
86 100 226 681 0
-86 -100 -226 -681 0
102 116 228 682 0
-102 -116 -228 -682 0
104 118 230 683 0
-104 -118 -230 -683 0
106 120 232 684 0
-106 -120 -232 -684 0
108 122 234 685 0
-108 -122 -234 -685 0
110 124 236 686 0
-110 -124 -236 -686 0
126 140 238 687 0
-126 -140 -238 -687 0
128 142 240 688 0
-128 -142 -240 -688 0
130 144 242 689 0
-130 -144 -242 -689 0
132 146 244 690 0
-132 -146 -244 -690 0
148 162 246 691 0
-148 -162 -246 -691 0
150 164 248 692 0
-150 -164 -248 -692 0
152 166 250 693 0
-152 -166 -250 -693 0
168 182 252 694 0
-168 -182 -252 -694 0
170 184 254 695 0
-170 -184 -254 -695 0
186 200 256 696 0
-186 -200 -256 -696 0
1 23 185 697 0
-1 -23 -185 -697 0
5 26 187 698 0
-5 -26 -187 -698 0
8 29 189 699 0
-8 -29 -189 -699 0
11 32 191 700 0
-11 -32 -191 -700 0
14 35 193 701 0
-14 -35 -193 -701 0
17 38 195 702 0
-17 -38 -195 -702 0
20 41 197 703 0
-20 -41 -197 -703 0
23 44 199 704 0
-23 -44 -199 -704 0
47 61 201 705 0
-47 -61 -201 -705 0
49 63 203 706 0
-49 -63 -203 -706 0
51 65 205 707 0
-51 -65 -205 -707 0
53 67 207 708 0
-53 -67 -207 -708 0
55 69 209 709 0
-55 -69 -209 -709 0
57 71 211 710 0
-57 -71 -211 -710 0
59 73 213 711 0
-59 -73 -213 -711 0
75 89 215 712 0
-75 -89 -215 -712 0
77 91 217 713 0
-77 -91 -217 -713 0
79 93 219 714 0
-79 -93 -219 -714 0
81 95 221 715 0
-81 -95 -221 -715 0
83 97 223 716 0
-83 -97 -223 -716 0
85 99 225 717 0
-85 -99 -225 -717 0
101 115 227 718 0
-101 -115 -227 -718 0
103 117 229 719 0
-103 -117 -229 -719 0
105 119 231 720 0
-105 -119 -231 -720 0
107 121 233 721 0
-107 -121 -233 -721 0
109 123 235 722 0
-109 -123 -235 -722 0
125 139 237 723 0
-125 -139 -237 -723 0
127 141 239 724 0
-127 -141 -239 -724 0
129 143 241 725 0
-129 -143 -241 -725 0
131 145 243 726 0
-131 -145 -243 -726 0
147 161 245 727 0
-147 -161 -245 -727 0
149 163 247 728 0
-149 -163 -247 -728 0
151 165 249 729 0
-151 -165 -249 -729 0
167 181 251 730 0
-167 -181 -251 -730 0
169 183 253 731 0
-169 -183 -253 -731 0
185 199 255 732 0
-185 -199 -255 -732 0
257 264 334 733 0
-257 -264 -334 -733 0
258 265 335 734 0
-258 -265 -335 -734 0
259 266 336 735 0
-259 -266 -336 -735 0
260 267 337 736 0
-260 -267 -337 -736 0
261 268 338 737 0
-261 -268 -338 -737 0
262 269 339 738 0
-262 -269 -339 -738 0
263 270 340 739 0
-263 -270 -340 -739 0
271 278 341 740 0
-271 -278 -341 -740 0
272 279 342 741 0
-272 -279 -342 -741 0
273 280 343 742 0
-273 -280 -343 -742 0
274 281 344 743 0
-274 -281 -344 -743 0
275 282 345 744 0
-275 -282 -345 -744 0
276 283 346 745 0
-276 -283 -346 -745 0
284 291 347 746 0
-284 -291 -347 -746 0
285 292 348 747 0
-285 -292 -348 -747 0
286 293 349 748 0
-286 -293 -349 -748 0
287 294 350 749 0
-287 -294 -350 -749 0
288 295 351 750 0
-288 -295 -351 -750 0
296 303 352 751 0
-296 -303 -352 -751 0
297 304 353 752 0
-297 -304 -353 -752 0
298 305 354 753 0
-298 -305 -354 -753 0
299 306 355 754 0
-299 -306 -355 -754 0
307 314 356 755 0
-307 -314 -356 -755 0
308 315 357 756 0
-308 -315 -357 -756 0
309 316 358 757 0
-309 -316 -358 -757 0
317 324 359 758 0
-317 -324 -359 -758 0
318 325 360 759 0
-318 -325 -360 -759 0
326 333 361 760 0
-326 -333 -361 -760 0
362 369 432 761 0
-362 -369 -432 -761 0
363 370 433 762 0
-363 -370 -433 -762 0
364 371 434 763 0
-364 -371 -434 -763 0
365 372 435 764 0
-365 -372 -435 -764 0
366 373 436 765 0
-366 -373 -436 -765 0
367 374 437 766 0
-367 -374 -437 -766 0
375 382 438 767 0
-375 -382 -438 -767 0
376 383 439 768 0
-376 -383 -439 -768 0
377 384 440 769 0
-377 -384 -440 -769 0
378 385 441 770 0
-378 -385 -441 -770 0
379 386 442 771 0
-379 -386 -442 -771 0
387 394 443 772 0
-387 -394 -443 -772 0
388 395 444 773 0
-388 -395 -444 -773 0
389 396 445 774 0
-389 -396 -445 -774 0
390 397 446 775 0
-390 -397 -446 -775 0
398 405 447 776 0
-398 -405 -447 -776 0
399 406 448 777 0
-399 -406 -448 -777 0
400 407 449 778 0
-400 -407 -449 -778 0
408 415 450 779 0
-408 -415 -450 -779 0
409 416 451 780 0
-409 -416 -451 -780 0
417 424 452 781 0
-417 -424 -452 -781 0
453 460 516 782 0
-453 -460 -516 -782 0
454 461 517 783 0
-454 -461 -517 -783 0
455 462 518 784 0
-455 -462 -518 -784 0
456 463 519 785 0
-456 -463 -519 -785 0
457 464 520 786 0
-457 -464 -520 -786 0
465 472 521 787 0
-465 -472 -521 -787 0
466 473 522 788 0
-466 -473 -522 -788 0
467 474 523 789 0
-467 -474 -523 -789 0
468 475 524 790 0
-468 -475 -524 -790 0
476 483 525 791 0
-476 -483 -525 -791 0
477 484 526 792 0
-477 -484 -526 -792 0
478 485 527 793 0
-478 -485 -527 -793 0
486 493 528 794 0
-486 -493 -528 -794 0
487 494 529 795 0
-487 -494 -529 -795 0
495 502 530 796 0
-495 -502 -530 -796 0
531 538 587 797 0
-531 -538 -587 -797 0
532 539 588 798 0
-532 -539 -588 -798 0
533 540 589 799 0
-533 -540 -589 -799 0
534 541 590 800 0
-534 -541 -590 -800 0
542 549 591 801 0
-542 -549 -591 -801 0
543 550 592 802 0
-543 -550 -592 -802 0
544 551 593 803 0
-544 -551 -593 -803 0
552 559 594 804 0
-552 -559 -594 -804 0
553 560 595 805 0
-553 -560 -595 -805 0
561 568 596 806 0
-561 -568 -596 -806 0
597 604 646 807 0
-597 -604 -646 -807 0
598 605 647 808 0
-598 -605 -647 -808 0
599 606 648 809 0
-599 -606 -648 -809 0
607 614 649 810 0
-607 -614 -649 -810 0
608 615 650 811 0
-608 -615 -650 -811 0
616 623 651 812 0
-616 -623 -651 -812 0
652 659 694 813 0
-652 -659 -694 -813 0
653 660 695 814 0
-653 -660 -695 -814 0
661 668 696 815 0
-661 -668 -696 -815 0
697 704 732 816 0
-697 -704 -732 -816 0
4 25 186 697 0
-4 -25 -186 -697 0
3 28 188 698 0
-3 -28 -188 -698 0
7 31 190 699 0
-7 -31 -190 -699 0
10 34 192 700 0
-10 -34 -192 -700 0
13 37 194 701 0
-13 -37 -194 -701 0
16 40 196 702 0
-16 -40 -196 -702 0
19 43 198 703 0
-19 -43 -198 -703 0
22 46 200 704 0
-22 -46 -200 -704 0
2 27 202 705 0
-2 -27 -202 -705 0
6 30 204 706 0
-6 -30 -204 -706 0
9 33 206 707 0
-9 -33 -206 -707 0
12 36 208 708 0
-12 -36 -208 -708 0
15 39 210 709 0
-15 -39 -210 -709 0
18 42 212 710 0
-18 -42 -212 -710 0
21 45 214 711 0
-21 -45 -214 -711 0
48 64 216 712 0
-48 -64 -216 -712 0
50 66 218 713 0
-50 -66 -218 -713 0
52 68 220 714 0
-52 -68 -220 -714 0
54 70 222 715 0
-54 -70 -222 -715 0
56 72 224 716 0
-56 -72 -224 -716 0
58 74 226 717 0
-58 -74 -226 -717 0
76 92 228 718 0
-76 -92 -228 -718 0
78 94 230 719 0
-78 -94 -230 -719 0
80 96 232 720 0
-80 -96 -232 -720 0
82 98 234 721 0
-82 -98 -234 -721 0
84 100 236 722 0
-84 -100 -236 -722 0
102 118 238 723 0
-102 -118 -238 -723 0
104 120 240 724 0
-104 -120 -240 -724 0
106 122 242 725 0
-106 -122 -242 -725 0
108 124 244 726 0
-108 -124 -244 -726 0
126 142 246 727 0
-126 -142 -246 -727 0
128 144 248 728 0
-128 -144 -248 -728 0
130 146 250 729 0
-130 -146 -250 -729 0
148 164 252 730 0
-148 -164 -252 -730 0
150 166 254 731 0
-150 -166 -254 -731 0
168 184 256 732 0
-168 -184 -256 -732 0
1 26 201 733 0
-1 -26 -201 -733 0
5 29 203 734 0
-5 -29 -203 -734 0
8 32 205 735 0
-8 -32 -205 -735 0
11 35 207 736 0
-11 -35 -207 -736 0
14 38 209 737 0
-14 -38 -209 -737 0
17 41 211 738 0
-17 -41 -211 -738 0
20 44 213 739 0
-20 -44 -213 -739 0
47 63 215 740 0
-47 -63 -215 -740 0
49 65 217 741 0
-49 -65 -217 -741 0
51 67 219 742 0
-51 -67 -219 -742 0
53 69 221 743 0
-53 -69 -221 -743 0
55 71 223 744 0
-55 -71 -223 -744 0
57 73 225 745 0
-57 -73 -225 -745 0
75 91 227 746 0
-75 -91 -227 -746 0
77 93 229 747 0
-77 -93 -229 -747 0
79 95 231 748 0
-79 -95 -231 -748 0
81 97 233 749 0
-81 -97 -233 -749 0
83 99 235 750 0
-83 -99 -235 -750 0
101 117 237 751 0
-101 -117 -237 -751 0
103 119 239 752 0
-103 -119 -239 -752 0
105 121 241 753 0
-105 -121 -241 -753 0
107 123 243 754 0
-107 -123 -243 -754 0
125 141 245 755 0
-125 -141 -245 -755 0
127 143 247 756 0
-127 -143 -247 -756 0
129 145 249 757 0
-129 -145 -249 -757 0
147 163 251 758 0
-147 -163 -251 -758 0
149 165 253 759 0
-149 -165 -253 -759 0
167 183 255 760 0
-167 -183 -255 -760 0
257 265 341 761 0
-257 -265 -341 -761 0
258 266 342 762 0
-258 -266 -342 -762 0
259 267 343 763 0
-259 -267 -343 -763 0
260 268 344 764 0
-260 -268 -344 -764 0
261 269 345 765 0
-261 -269 -345 -765 0
262 270 346 766 0
-262 -270 -346 -766 0
271 279 347 767 0
-271 -279 -347 -767 0
272 280 348 768 0
-272 -280 -348 -768 0
273 281 349 769 0
-273 -281 -349 -769 0
274 282 350 770 0
-274 -282 -350 -770 0
275 283 351 771 0
-275 -283 -351 -771 0
284 292 352 772 0
-284 -292 -352 -772 0
285 293 353 773 0
-285 -293 -353 -773 0
286 294 354 774 0
-286 -294 -354 -774 0
287 295 355 775 0
-287 -295 -355 -775 0
296 304 356 776 0
-296 -304 -356 -776 0
297 305 357 777 0
-297 -305 -357 -777 0
298 306 358 778 0
-298 -306 -358 -778 0
307 315 359 779 0
-307 -315 -359 -779 0
308 316 360 780 0
-308 -316 -360 -780 0
317 325 361 781 0
-317 -325 -361 -781 0
362 370 438 782 0
-362 -370 -438 -782 0
363 371 439 783 0
-363 -371 -439 -783 0
364 372 440 784 0
-364 -372 -440 -784 0
365 373 441 785 0
-365 -373 -441 -785 0
366 374 442 786 0
-366 -374 -442 -786 0
375 383 443 787 0
-375 -383 -443 -787 0
376 384 444 788 0
-376 -384 -444 -788 0
377 385 445 789 0
-377 -385 -445 -789 0
378 386 446 790 0
-378 -386 -446 -790 0
387 395 447 791 0
-387 -395 -447 -791 0
388 396 448 792 0
-388 -396 -448 -792 0
389 397 449 793 0
-389 -397 -449 -793 0
398 406 450 794 0
-398 -406 -450 -794 0
399 407 451 795 0
-399 -407 -451 -795 0
408 416 452 796 0
-408 -416 -452 -796 0
453 461 521 797 0
-453 -461 -521 -797 0
454 462 522 798 0
-454 -462 -522 -798 0
455 463 523 799 0
-455 -463 -523 -799 0
456 464 524 800 0
-456 -464 -524 -800 0
465 473 525 801 0
-465 -473 -525 -801 0
466 474 526 802 0
-466 -474 -526 -802 0
467 475 527 803 0
-467 -475 -527 -803 0
476 484 528 804 0
-476 -484 -528 -804 0
477 485 529 805 0
-477 -485 -529 -805 0
486 494 530 806 0
-486 -494 -530 -806 0
531 539 591 807 0
-531 -539 -591 -807 0
532 540 592 808 0
-532 -540 -592 -808 0
533 541 593 809 0
-533 -541 -593 -809 0
542 550 594 810 0
-542 -550 -594 -810 0
543 551 595 811 0
-543 -551 -595 -811 0
552 560 596 812 0
-552 -560 -596 -812 0
597 605 649 813 0
-597 -605 -649 -813 0
598 606 650 814 0
-598 -606 -650 -814 0
607 615 651 815 0
-607 -615 -651 -815 0
652 660 696 816 0
-652 -660 -696 -816 0
4 28 202 733 0
-4 -28 -202 -733 0
3 31 204 734 0
-3 -31 -204 -734 0
7 34 206 735 0
-7 -34 -206 -735 0
10 37 208 736 0
-10 -37 -208 -736 0
13 40 210 737 0
-13 -40 -210 -737 0
16 43 212 738 0
-16 -43 -212 -738 0
19 46 214 739 0
-19 -46 -214 -739 0
2 30 216 740 0
-2 -30 -216 -740 0
6 33 218 741 0
-6 -33 -218 -741 0
9 36 220 742 0
-9 -36 -220 -742 0
12 39 222 743 0
-12 -39 -222 -743 0
15 42 224 744 0
-15 -42 -224 -744 0
18 45 226 745 0
-18 -45 -226 -745 0
48 66 228 746 0
-48 -66 -228 -746 0
50 68 230 747 0
-50 -68 -230 -747 0
52 70 232 748 0
-52 -70 -232 -748 0
54 72 234 749 0
-54 -72 -234 -749 0
56 74 236 750 0
-56 -74 -236 -750 0
76 94 238 751 0
-76 -94 -238 -751 0
78 96 240 752 0
-78 -96 -240 -752 0
80 98 242 753 0
-80 -98 -242 -753 0
82 100 244 754 0
-82 -100 -244 -754 0
102 120 246 755 0
-102 -120 -246 -755 0
104 122 248 756 0
-104 -122 -248 -756 0
106 124 250 757 0
-106 -124 -250 -757 0
126 144 252 758 0
-126 -144 -252 -758 0
128 146 254 759 0
-128 -146 -254 -759 0
148 166 256 760 0
-148 -166 -256 -760 0
1 29 215 761 0
-1 -29 -215 -761 0
5 32 217 762 0
-5 -32 -217 -762 0
8 35 219 763 0
-8 -35 -219 -763 0
11 38 221 764 0
-11 -38 -221 -764 0
14 41 223 765 0
-14 -41 -223 -765 0
17 44 225 766 0
-17 -44 -225 -766 0
47 65 227 767 0
-47 -65 -227 -767 0
49 67 229 768 0
-49 -67 -229 -768 0
51 69 231 769 0
-51 -69 -231 -769 0
53 71 233 770 0
-53 -71 -233 -770 0
55 73 235 771 0
-55 -73 -235 -771 0
75 93 237 772 0
-75 -93 -237 -772 0
77 95 239 773 0
-77 -95 -239 -773 0
79 97 241 774 0
-79 -97 -241 -774 0
81 99 243 775 0
-81 -99 -243 -775 0
101 119 245 776 0
-101 -119 -245 -776 0
103 121 247 777 0
-103 -121 -247 -777 0
105 123 249 778 0
-105 -123 -249 -778 0
125 143 251 779 0
-125 -143 -251 -779 0
127 145 253 780 0
-127 -145 -253 -780 0
147 165 255 781 0
-147 -165 -255 -781 0
257 266 347 782 0
-257 -266 -347 -782 0
258 267 348 783 0
-258 -267 -348 -783 0
259 268 349 784 0
-259 -268 -349 -784 0
260 269 350 785 0
-260 -269 -350 -785 0
261 270 351 786 0
-261 -270 -351 -786 0
271 280 352 787 0
-271 -280 -352 -787 0
272 281 353 788 0
-272 -281 -353 -788 0
273 282 354 789 0
-273 -282 -354 -789 0
274 283 355 790 0
-274 -283 -355 -790 0
284 293 356 791 0
-284 -293 -356 -791 0
285 294 357 792 0
-285 -294 -357 -792 0
286 295 358 793 0
-286 -295 -358 -793 0
296 305 359 794 0
-296 -305 -359 -794 0
297 306 360 795 0
-297 -306 -360 -795 0
307 316 361 796 0
-307 -316 -361 -796 0
362 371 443 797 0
-362 -371 -443 -797 0
363 372 444 798 0
-363 -372 -444 -798 0
364 373 445 799 0
-364 -373 -445 -799 0
365 374 446 800 0
-365 -374 -446 -800 0
375 384 447 801 0
-375 -384 -447 -801 0
376 385 448 802 0
-376 -385 -448 -802 0
377 386 449 803 0
-377 -386 -449 -803 0
387 396 450 804 0
-387 -396 -450 -804 0
388 397 451 805 0
-388 -397 -451 -805 0
398 407 452 806 0
-398 -407 -452 -806 0
453 462 525 807 0
-453 -462 -525 -807 0
454 463 526 808 0
-454 -463 -526 -808 0
455 464 527 809 0
-455 -464 -527 -809 0
465 474 528 810 0
-465 -474 -528 -810 0
466 475 529 811 0
-466 -475 -529 -811 0
476 485 530 812 0
-476 -485 -530 -812 0
531 540 594 813 0
-531 -540 -594 -813 0
532 541 595 814 0
-532 -541 -595 -814 0
542 551 596 815 0
-542 -551 -596 -815 0
597 606 651 816 0
-597 -606 -651 -816 0
4 31 216 761 0
-4 -31 -216 -761 0
3 34 218 762 0
-3 -34 -218 -762 0
7 37 220 763 0
-7 -37 -220 -763 0
10 40 222 764 0
-10 -40 -222 -764 0
13 43 224 765 0
-13 -43 -224 -765 0
16 46 226 766 0
-16 -46 -226 -766 0
2 33 228 767 0
-2 -33 -228 -767 0
6 36 230 768 0
-6 -36 -230 -768 0
9 39 232 769 0
-9 -39 -232 -769 0
12 42 234 770 0
-12 -42 -234 -770 0
15 45 236 771 0
-15 -45 -236 -771 0
48 68 238 772 0
-48 -68 -238 -772 0
50 70 240 773 0
-50 -70 -240 -773 0
52 72 242 774 0
-52 -72 -242 -774 0
54 74 244 775 0
-54 -74 -244 -775 0
76 96 246 776 0
-76 -96 -246 -776 0
78 98 248 777 0
-78 -98 -248 -777 0
80 100 250 778 0
-80 -100 -250 -778 0
102 122 252 779 0
-102 -122 -252 -779 0
104 124 254 780 0
-104 -124 -254 -780 0
126 146 256 781 0
-126 -146 -256 -781 0
1 32 227 782 0
-1 -32 -227 -782 0
5 35 229 783 0
-5 -35 -229 -783 0
8 38 231 784 0
-8 -38 -231 -784 0
11 41 233 785 0
-11 -41 -233 -785 0
14 44 235 786 0
-14 -44 -235 -786 0
47 67 237 787 0
-47 -67 -237 -787 0
49 69 239 788 0
-49 -69 -239 -788 0
51 71 241 789 0
-51 -71 -241 -789 0
53 73 243 790 0
-53 -73 -243 -790 0
75 95 245 791 0
-75 -95 -245 -791 0
77 97 247 792 0
-77 -97 -247 -792 0
79 99 249 793 0
-79 -99 -249 -793 0
101 121 251 794 0
-101 -121 -251 -794 0
103 123 253 795 0
-103 -123 -253 -795 0
125 145 255 796 0
-125 -145 -255 -796 0
257 267 352 797 0
-257 -267 -352 -797 0
258 268 353 798 0
-258 -268 -353 -798 0
259 269 354 799 0
-259 -269 -354 -799 0
260 270 355 800 0
-260 -270 -355 -800 0
271 281 356 801 0
-271 -281 -356 -801 0
272 282 357 802 0
-272 -282 -357 -802 0
273 283 358 803 0
-273 -283 -358 -803 0
284 294 359 804 0
-284 -294 -359 -804 0
285 295 360 805 0
-285 -295 -360 -805 0
296 306 361 806 0
-296 -306 -361 -806 0
362 372 447 807 0
-362 -372 -447 -807 0
363 373 448 808 0
-363 -373 -448 -808 0
364 374 449 809 0
-364 -374 -449 -809 0
375 385 450 810 0
-375 -385 -450 -810 0
376 386 451 811 0
-376 -386 -451 -811 0
387 397 452 812 0
-387 -397 -452 -812 0
453 463 528 813 0
-453 -463 -528 -813 0
454 464 529 814 0
-454 -464 -529 -814 0
465 475 530 815 0
-465 -475 -530 -815 0
531 541 596 816 0
-531 -541 -596 -816 0
4 34 228 782 0
-4 -34 -228 -782 0
3 37 230 783 0
-3 -37 -230 -783 0
7 40 232 784 0
-7 -40 -232 -784 0
10 43 234 785 0
-10 -43 -234 -785 0
13 46 236 786 0
-13 -46 -236 -786 0
2 36 238 787 0
-2 -36 -238 -787 0
6 39 240 788 0
-6 -39 -240 -788 0
9 42 242 789 0
-9 -42 -242 -789 0
12 45 244 790 0
-12 -45 -244 -790 0
48 70 246 791 0
-48 -70 -246 -791 0
50 72 248 792 0
-50 -72 -248 -792 0
52 74 250 793 0
-52 -74 -250 -793 0
76 98 252 794 0
-76 -98 -252 -794 0
78 100 254 795 0
-78 -100 -254 -795 0
102 124 256 796 0
-102 -124 -256 -796 0
1 35 237 797 0
-1 -35 -237 -797 0
5 38 239 798 0
-5 -38 -239 -798 0
8 41 241 799 0
-8 -41 -241 -799 0
11 44 243 800 0
-11 -44 -243 -800 0
47 69 245 801 0
-47 -69 -245 -801 0
49 71 247 802 0
-49 -71 -247 -802 0
51 73 249 803 0
-51 -73 -249 -803 0
75 97 251 804 0
-75 -97 -251 -804 0
77 99 253 805 0
-77 -99 -253 -805 0
101 123 255 806 0
-101 -123 -255 -806 0
257 268 356 807 0
-257 -268 -356 -807 0
258 269 357 808 0
-258 -269 -357 -808 0
259 270 358 809 0
-259 -270 -358 -809 0
271 282 359 810 0
-271 -282 -359 -810 0
272 283 360 811 0
-272 -283 -360 -811 0
284 295 361 812 0
-284 -295 -361 -812 0
362 373 450 813 0
-362 -373 -450 -813 0
363 374 451 814 0
-363 -374 -451 -814 0
375 386 452 815 0
-375 -386 -452 -815 0
453 464 530 816 0
-453 -464 -530 -816 0
4 37 238 797 0
-4 -37 -238 -797 0
3 40 240 798 0
-3 -40 -240 -798 0
7 43 242 799 0
-7 -43 -242 -799 0
10 46 244 800 0
-10 -46 -244 -800 0
2 39 246 801 0
-2 -39 -246 -801 0
6 42 248 802 0
-6 -42 -248 -802 0
9 45 250 803 0
-9 -45 -250 -803 0
48 72 252 804 0
-48 -72 -252 -804 0
50 74 254 805 0
-50 -74 -254 -805 0
76 100 256 806 0
-76 -100 -256 -806 0
1 38 245 807 0
-1 -38 -245 -807 0
5 41 247 808 0
-5 -41 -247 -808 0
8 44 249 809 0
-8 -44 -249 -809 0
47 71 251 810 0
-47 -71 -251 -810 0
49 73 253 811 0
-49 -73 -253 -811 0
75 99 255 812 0
-75 -99 -255 -812 0
257 269 359 813 0
-257 -269 -359 -813 0
258 270 360 814 0
-258 -270 -360 -814 0
271 283 361 815 0
-271 -283 -361 -815 0
362 374 452 816 0
-362 -374 -452 -816 0
4 40 246 807 0
-4 -40 -246 -807 0
3 43 248 808 0
-3 -43 -248 -808 0
7 46 250 809 0
-7 -46 -250 -809 0
2 42 252 810 0
-2 -42 -252 -810 0
6 45 254 811 0
-6 -45 -254 -811 0
48 74 256 812 0
-48 -74 -256 -812 0
1 41 251 813 0
-1 -41 -251 -813 0
5 44 253 814 0
-5 -44 -253 -814 0
47 73 255 815 0
-47 -73 -255 -815 0
257 270 361 816 0
-257 -270 -361 -816 0
4 43 252 813 0
-4 -43 -252 -813 0
3 46 254 814 0
-3 -46 -254 -814 0
2 45 256 815 0
-2 -45 -256 -815 0
1 44 255 816 0
-1 -44 -255 -816 0
4 46 256 816 0
-4 -46 -256 -816 0
