c S_n-invariant Hales-Jewett, k=4, n=14
p cnf 680 4760
1 2 3 4 0
-1 -2 -3 -4 0
3 5 6 7 0
-3 -5 -6 -7 0
7 8 9 10 0
-7 -8 -9 -10 0
10 11 12 13 0
-10 -11 -12 -13 0
13 14 15 16 0
-13 -14 -15 -16 0
16 17 18 19 0
-16 -17 -18 -19 0
19 20 21 22 0
-19 -20 -21 -22 0
22 23 24 25 0
-22 -23 -24 -25 0
25 26 27 28 0
-25 -26 -27 -28 0
28 29 30 31 0
-28 -29 -30 -31 0
31 32 33 34 0
-31 -32 -33 -34 0
34 35 36 37 0
-34 -35 -36 -37 0
37 38 39 40 0
-37 -38 -39 -40 0
40 41 42 43 0
-40 -41 -42 -43 0
2 6 44 45 0
-2 -6 -44 -45 0
6 9 46 47 0
-6 -9 -46 -47 0
9 12 48 49 0
-9 -12 -48 -49 0
12 15 50 51 0
-12 -15 -50 -51 0
15 18 52 53 0
-15 -18 -52 -53 0
18 21 54 55 0
-18 -21 -54 -55 0
21 24 56 57 0
-21 -24 -56 -57 0
24 27 58 59 0
-24 -27 -58 -59 0
27 30 60 61 0
-27 -30 -60 -61 0
30 33 62 63 0
-30 -33 -62 -63 0
33 36 64 65 0
-33 -36 -64 -65 0
36 39 66 67 0
-36 -39 -66 -67 0
39 42 68 69 0
-39 -42 -68 -69 0
45 47 70 71 0
-45 -47 -70 -71 0
47 49 72 73 0
-47 -49 -72 -73 0
49 51 74 75 0
-49 -51 -74 -75 0
51 53 76 77 0
-51 -53 -76 -77 0
53 55 78 79 0
-53 -55 -78 -79 0
55 57 80 81 0
-55 -57 -80 -81 0
57 59 82 83 0
-57 -59 -82 -83 0
59 61 84 85 0
-59 -61 -84 -85 0
61 63 86 87 0
-61 -63 -86 -87 0
63 65 88 89 0
-63 -65 -88 -89 0
65 67 90 91 0
-65 -67 -90 -91 0
67 69 92 93 0
-67 -69 -92 -93 0
71 73 94 95 0
-71 -73 -94 -95 0
73 75 96 97 0
-73 -75 -96 -97 0
75 77 98 99 0
-75 -77 -98 -99 0
77 79 100 101 0
-77 -79 -100 -101 0
79 81 102 103 0
-79 -81 -102 -103 0
81 83 104 105 0
-81 -83 -104 -105 0
83 85 106 107 0
-83 -85 -106 -107 0
85 87 108 109 0
-85 -87 -108 -109 0
87 89 110 111 0
-87 -89 -110 -111 0
89 91 112 113 0
-89 -91 -112 -113 0
91 93 114 115 0
-91 -93 -114 -115 0
95 97 116 117 0
-95 -97 -116 -117 0
97 99 118 119 0
-97 -99 -118 -119 0
99 101 120 121 0
-99 -101 -120 -121 0
101 103 122 123 0
-101 -103 -122 -123 0
103 105 124 125 0
-103 -105 -124 -125 0
105 107 126 127 0
-105 -107 -126 -127 0
107 109 128 129 0
-107 -109 -128 -129 0
109 111 130 131 0
-109 -111 -130 -131 0
111 113 132 133 0
-111 -113 -132 -133 0
113 115 134 135 0
-113 -115 -134 -135 0
117 119 136 137 0
-117 -119 -136 -137 0
119 121 138 139 0
-119 -121 -138 -139 0
121 123 140 141 0
-121 -123 -140 -141 0
123 125 142 143 0
-123 -125 -142 -143 0
125 127 144 145 0
-125 -127 -144 -145 0
127 129 146 147 0
-127 -129 -146 -147 0
129 131 148 149 0
-129 -131 -148 -149 0
131 133 150 151 0
-131 -133 -150 -151 0
133 135 152 153 0
-133 -135 -152 -153 0
137 139 154 155 0
-137 -139 -154 -155 0
139 141 156 157 0
-139 -141 -156 -157 0
141 143 158 159 0
-141 -143 -158 -159 0
143 145 160 161 0
-143 -145 -160 -161 0
145 147 162 163 0
-145 -147 -162 -163 0
147 149 164 165 0
-147 -149 -164 -165 0
149 151 166 167 0
-149 -151 -166 -167 0
151 153 168 169 0
-151 -153 -168 -169 0
155 157 170 171 0
-155 -157 -170 -171 0
157 159 172 173 0
-157 -159 -172 -173 0
159 161 174 175 0
-159 -161 -174 -175 0
161 163 176 177 0
-161 -163 -176 -177 0
163 165 178 179 0
-163 -165 -178 -179 0
165 167 180 181 0
-165 -167 -180 -181 0
167 169 182 183 0
-167 -169 -182 -183 0
171 173 184 185 0
-171 -173 -184 -185 0
173 175 186 187 0
-173 -175 -186 -187 0
175 177 188 189 0
-175 -177 -188 -189 0
177 179 190 191 0
-177 -179 -190 -191 0
179 181 192 193 0
-179 -181 -192 -193 0
181 183 194 195 0
-181 -183 -194 -195 0
185 187 196 197 0
-185 -187 -196 -197 0
187 189 198 199 0
-187 -189 -198 -199 0
189 191 200 201 0
-189 -191 -200 -201 0
191 193 202 203 0
-191 -193 -202 -203 0
193 195 204 205 0
-193 -195 -204 -205 0
197 199 206 207 0
-197 -199 -206 -207 0
199 201 208 209 0
-199 -201 -208 -209 0
201 203 210 211 0
-201 -203 -210 -211 0
203 205 212 213 0
-203 -205 -212 -213 0
207 209 214 215 0
-207 -209 -214 -215 0
209 211 216 217 0
-209 -211 -216 -217 0
211 213 218 219 0
-211 -213 -218 -219 0
215 217 220 221 0
-215 -217 -220 -221 0
217 219 222 223 0
-217 -219 -222 -223 0
221 223 224 225 0
-221 -223 -224 -225 0
1 5 44 226 0
-1 -5 -44 -226 0
5 8 46 227 0
-5 -8 -46 -227 0
8 11 48 228 0
-8 -11 -48 -228 0
11 14 50 229 0
-11 -14 -50 -229 0
14 17 52 230 0
-14 -17 -52 -230 0
17 20 54 231 0
-17 -20 -54 -231 0
20 23 56 232 0
-20 -23 -56 -232 0
23 26 58 233 0
-23 -26 -58 -233 0
26 29 60 234 0
-26 -29 -60 -234 0
29 32 62 235 0
-29 -32 -62 -235 0
32 35 64 236 0
-32 -35 -64 -236 0
35 38 66 237 0
-35 -38 -66 -237 0
38 41 68 238 0
-38 -41 -68 -238 0
44 46 70 239 0
-44 -46 -70 -239 0
46 48 72 240 0
-46 -48 -72 -240 0
48 50 74 241 0
-48 -50 -74 -241 0
50 52 76 242 0
-50 -52 -76 -242 0
52 54 78 243 0
-52 -54 -78 -243 0
54 56 80 244 0
-54 -56 -80 -244 0
56 58 82 245 0
-56 -58 -82 -245 0
58 60 84 246 0
-58 -60 -84 -246 0
60 62 86 247 0
-60 -62 -86 -247 0
62 64 88 248 0
-62 -64 -88 -248 0
64 66 90 249 0
-64 -66 -90 -249 0
66 68 92 250 0
-66 -68 -92 -250 0
70 72 94 251 0
-70 -72 -94 -251 0
72 74 96 252 0
-72 -74 -96 -252 0
74 76 98 253 0
-74 -76 -98 -253 0
76 78 100 254 0
-76 -78 -100 -254 0
78 80 102 255 0
-78 -80 -102 -255 0
80 82 104 256 0
-80 -82 -104 -256 0
82 84 106 257 0
-82 -84 -106 -257 0
84 86 108 258 0
-84 -86 -108 -258 0
86 88 110 259 0
-86 -88 -110 -259 0
88 90 112 260 0
-88 -90 -112 -260 0
90 92 114 261 0
-90 -92 -114 -261 0
94 96 116 262 0
-94 -96 -116 -262 0
96 98 118 263 0
-96 -98 -118 -263 0
98 100 120 264 0
-98 -100 -120 -264 0
100 102 122 265 0
-100 -102 -122 -265 0
102 104 124 266 0
-102 -104 -124 -266 0
104 106 126 267 0
-104 -106 -126 -267 0
106 108 128 268 0
-106 -108 -128 -268 0
108 110 130 269 0
-108 -110 -130 -269 0
110 112 132 270 0
-110 -112 -132 -270 0
112 114 134 271 0
-112 -114 -134 -271 0
116 118 136 272 0
-116 -118 -136 -272 0
118 120 138 273 0
-118 -120 -138 -273 0
120 122 140 274 0
-120 -122 -140 -274 0
122 124 142 275 0
-122 -124 -142 -275 0
124 126 144 276 0
-124 -126 -144 -276 0
126 128 146 277 0
-126 -128 -146 -277 0
128 130 148 278 0
-128 -130 -148 -278 0
130 132 150 279 0
-130 -132 -150 -279 0
132 134 152 280 0
-132 -134 -152 -280 0
136 138 154 281 0
-136 -138 -154 -281 0
138 140 156 282 0
-138 -140 -156 -282 0
140 142 158 283 0
-140 -142 -158 -283 0
142 144 160 284 0
-142 -144 -160 -284 0
144 146 162 285 0
-144 -146 -162 -285 0
146 148 164 286 0
-146 -148 -164 -286 0
148 150 166 287 0
-148 -150 -166 -287 0
150 152 168 288 0
-150 -152 -168 -288 0
154 156 170 289 0
-154 -156 -170 -289 0
156 158 172 290 0
-156 -158 -172 -290 0
158 160 174 291 0
-158 -160 -174 -291 0
160 162 176 292 0
-160 -162 -176 -292 0
162 164 178 293 0
-162 -164 -178 -293 0
164 166 180 294 0
-164 -166 -180 -294 0
166 168 182 295 0
-166 -168 -182 -295 0
170 172 184 296 0
-170 -172 -184 -296 0
172 174 186 297 0
-172 -174 -186 -297 0
174 176 188 298 0
-174 -176 -188 -298 0
176 178 190 299 0
-176 -178 -190 -299 0
178 180 192 300 0
-178 -180 -192 -300 0
180 182 194 301 0
-180 -182 -194 -301 0
184 186 196 302 0
-184 -186 -196 -302 0
186 188 198 303 0
-186 -188 -198 -303 0
188 190 200 304 0
-188 -190 -200 -304 0
190 192 202 305 0
-190 -192 -202 -305 0
192 194 204 306 0
-192 -194 -204 -306 0
196 198 206 307 0
-196 -198 -206 -307 0
198 200 208 308 0
-198 -200 -208 -308 0
200 202 210 309 0
-200 -202 -210 -309 0
202 204 212 310 0
-202 -204 -212 -310 0
206 208 214 311 0
-206 -208 -214 -311 0
208 210 216 312 0
-208 -210 -216 -312 0
210 212 218 313 0
-210 -212 -218 -313 0
214 216 220 314 0
-214 -216 -220 -314 0
216 218 222 315 0
-216 -218 -222 -315 0
220 222 224 316 0
-220 -222 -224 -316 0
226 227 239 317 0
-226 -227 -239 -317 0
227 228 240 318 0
-227 -228 -240 -318 0
228 229 241 319 0
-228 -229 -241 -319 0
229 230 242 320 0
-229 -230 -242 -320 0
230 231 243 321 0
-230 -231 -243 -321 0
231 232 244 322 0
-231 -232 -244 -322 0
232 233 245 323 0
-232 -233 -245 -323 0
233 234 246 324 0
-233 -234 -246 -324 0
234 235 247 325 0
-234 -235 -247 -325 0
235 236 248 326 0
-235 -236 -248 -326 0
236 237 249 327 0
-236 -237 -249 -327 0
237 238 250 328 0
-237 -238 -250 -328 0
239 240 251 329 0
-239 -240 -251 -329 0
240 241 252 330 0
-240 -241 -252 -330 0
241 242 253 331 0
-241 -242 -253 -331 0
242 243 254 332 0
-242 -243 -254 -332 0
243 244 255 333 0
-243 -244 -255 -333 0
244 245 256 334 0
-244 -245 -256 -334 0
245 246 257 335 0
-245 -246 -257 -335 0
246 247 258 336 0
-246 -247 -258 -336 0
247 248 259 337 0
-247 -248 -259 -337 0
248 249 260 338 0
-248 -249 -260 -338 0
249 250 261 339 0
-249 -250 -261 -339 0
251 252 262 340 0
-251 -252 -262 -340 0
252 253 263 341 0
-252 -253 -263 -341 0
253 254 264 342 0
-253 -254 -264 -342 0
254 255 265 343 0
-254 -255 -265 -343 0
255 256 266 344 0
-255 -256 -266 -344 0
256 257 267 345 0
-256 -257 -267 -345 0
257 258 268 346 0
-257 -258 -268 -346 0
258 259 269 347 0
-258 -259 -269 -347 0
259 260 270 348 0
-259 -260 -270 -348 0
260 261 271 349 0
-260 -261 -271 -349 0
262 263 272 350 0
-262 -263 -272 -350 0
263 264 273 351 0
-263 -264 -273 -351 0
264 265 274 352 0
-264 -265 -274 -352 0
265 266 275 353 0
-265 -266 -275 -353 0
266 267 276 354 0
-266 -267 -276 -354 0
267 268 277 355 0
-267 -268 -277 -355 0
268 269 278 356 0
-268 -269 -278 -356 0
269 270 279 357 0
-269 -270 -279 -357 0
270 271 280 358 0
-270 -271 -280 -358 0
272 273 281 359 0
-272 -273 -281 -359 0
273 274 282 360 0
-273 -274 -282 -360 0
274 275 283 361 0
-274 -275 -283 -361 0
275 276 284 362 0
-275 -276 -284 -362 0
276 277 285 363 0
-276 -277 -285 -363 0
277 278 286 364 0
-277 -278 -286 -364 0
278 279 287 365 0
-278 -279 -287 -365 0
279 280 288 366 0
-279 -280 -288 -366 0
281 282 289 367 0
-281 -282 -289 -367 0
282 283 290 368 0
-282 -283 -290 -368 0
283 284 291 369 0
-283 -284 -291 -369 0
284 285 292 370 0
-284 -285 -292 -370 0
285 286 293 371 0
-285 -286 -293 -371 0
286 287 294 372 0
-286 -287 -294 -372 0
287 288 295 373 0
-287 -288 -295 -373 0
289 290 296 374 0
-289 -290 -296 -374 0
290 291 297 375 0
-290 -291 -297 -375 0
291 292 298 376 0
-291 -292 -298 -376 0
292 293 299 377 0
-292 -293 -299 -377 0
293 294 300 378 0
-293 -294 -300 -378 0
294 295 301 379 0
-294 -295 -301 -379 0
296 297 302 380 0
-296 -297 -302 -380 0
297 298 303 381 0
-297 -298 -303 -381 0
298 299 304 382 0
-298 -299 -304 -382 0
299 300 305 383 0
-299 -300 -305 -383 0
300 301 306 384 0
-300 -301 -306 -384 0
302 303 307 385 0
-302 -303 -307 -385 0
303 304 308 386 0
-303 -304 -308 -386 0
304 305 309 387 0
-304 -305 -309 -387 0
305 306 310 388 0
-305 -306 -310 -388 0
307 308 311 389 0
-307 -308 -311 -389 0
308 309 312 390 0
-308 -309 -312 -390 0
309 310 313 391 0
-309 -310 -313 -391 0
311 312 314 392 0
-311 -312 -314 -392 0
312 313 315 393 0
-312 -313 -315 -393 0
314 315 316 394 0
-314 -315 -316 -394 0
317 318 329 395 0
-317 -318 -329 -395 0
318 319 330 396 0
-318 -319 -330 -396 0
319 320 331 397 0
-319 -320 -331 -397 0
320 321 332 398 0
-320 -321 -332 -398 0
321 322 333 399 0
-321 -322 -333 -399 0
322 323 334 400 0
-322 -323 -334 -400 0
323 324 335 401 0
-323 -324 -335 -401 0
324 325 336 402 0
-324 -325 -336 -402 0
325 326 337 403 0
-325 -326 -337 -403 0
326 327 338 404 0
-326 -327 -338 -404 0
327 328 339 405 0
-327 -328 -339 -405 0
329 330 340 406 0
-329 -330 -340 -406 0
330 331 341 407 0
-330 -331 -341 -407 0
331 332 342 408 0
-331 -332 -342 -408 0
332 333 343 409 0
-332 -333 -343 -409 0
333 334 344 410 0
-333 -334 -344 -410 0
334 335 345 411 0
-334 -335 -345 -411 0
335 336 346 412 0
-335 -336 -346 -412 0
336 337 347 413 0
-336 -337 -347 -413 0
337 338 348 414 0
-337 -338 -348 -414 0
338 339 349 415 0
-338 -339 -349 -415 0
340 341 350 416 0
-340 -341 -350 -416 0
341 342 351 417 0
-341 -342 -351 -417 0
342 343 352 418 0
-342 -343 -352 -418 0
343 344 353 419 0
-343 -344 -353 -419 0
344 345 354 420 0
-344 -345 -354 -420 0
345 346 355 421 0
-345 -346 -355 -421 0
346 347 356 422 0
-346 -347 -356 -422 0
347 348 357 423 0
-347 -348 -357 -423 0
348 349 358 424 0
-348 -349 -358 -424 0
350 351 359 425 0
-350 -351 -359 -425 0
351 352 360 426 0
-351 -352 -360 -426 0
352 353 361 427 0
-352 -353 -361 -427 0
353 354 362 428 0
-353 -354 -362 -428 0
354 355 363 429 0
-354 -355 -363 -429 0
355 356 364 430 0
-355 -356 -364 -430 0
356 357 365 431 0
-356 -357 -365 -431 0
357 358 366 432 0
-357 -358 -366 -432 0
359 360 367 433 0
-359 -360 -367 -433 0
360 361 368 434 0
-360 -361 -368 -434 0
361 362 369 435 0
-361 -362 -369 -435 0
362 363 370 436 0
-362 -363 -370 -436 0
363 364 371 437 0
-363 -364 -371 -437 0
364 365 372 438 0
-364 -365 -372 -438 0
365 366 373 439 0
-365 -366 -373 -439 0
367 368 374 440 0
-367 -368 -374 -440 0
368 369 375 441 0
-368 -369 -375 -441 0
369 370 376 442 0
-369 -370 -376 -442 0
370 371 377 443 0
-370 -371 -377 -443 0
371 372 378 444 0
-371 -372 -378 -444 0
372 373 379 445 0
-372 -373 -379 -445 0
374 375 380 446 0
-374 -375 -380 -446 0
375 376 381 447 0
-375 -376 -381 -447 0
376 377 382 448 0
-376 -377 -382 -448 0
377 378 383 449 0
-377 -378 -383 -449 0
378 379 384 450 0
-378 -379 -384 -450 0
380 381 385 451 0
-380 -381 -385 -451 0
381 382 386 452 0
-381 -382 -386 -452 0
382 383 387 453 0
-382 -383 -387 -453 0
383 384 388 454 0
-383 -384 -388 -454 0
385 386 389 455 0
-385 -386 -389 -455 0
386 387 390 456 0
-386 -387 -390 -456 0
387 388 391 457 0
-387 -388 -391 -457 0
389 390 392 458 0
-389 -390 -392 -458 0
390 391 393 459 0
-390 -391 -393 -459 0
392 393 394 460 0
-392 -393 -394 -460 0
395 396 406 461 0
-395 -396 -406 -461 0
396 397 407 462 0
-396 -397 -407 -462 0
397 398 408 463 0
-397 -398 -408 -463 0
398 399 409 464 0
-398 -399 -409 -464 0
399 400 410 465 0
-399 -400 -410 -465 0
400 401 411 466 0
-400 -401 -411 -466 0
401 402 412 467 0
-401 -402 -412 -467 0
402 403 413 468 0
-402 -403 -413 -468 0
403 404 414 469 0
-403 -404 -414 -469 0
404 405 415 470 0
-404 -405 -415 -470 0
406 407 416 471 0
-406 -407 -416 -471 0
407 408 417 472 0
-407 -408 -417 -472 0
408 409 418 473 0
-408 -409 -418 -473 0
409 410 419 474 0
-409 -410 -419 -474 0
410 411 420 475 0
-410 -411 -420 -475 0
411 412 421 476 0
-411 -412 -421 -476 0
412 413 422 477 0
-412 -413 -422 -477 0
413 414 423 478 0
-413 -414 -423 -478 0
414 415 424 479 0
-414 -415 -424 -479 0
416 417 425 480 0
-416 -417 -425 -480 0
417 418 426 481 0
-417 -418 -426 -481 0
418 419 427 482 0
-418 -419 -427 -482 0
419 420 428 483 0
-419 -420 -428 -483 0
420 421 429 484 0
-420 -421 -429 -484 0
421 422 430 485 0
-421 -422 -430 -485 0
422 423 431 486 0
-422 -423 -431 -486 0
423 424 432 487 0
-423 -424 -432 -487 0
425 426 433 488 0
-425 -426 -433 -488 0
426 427 434 489 0
-426 -427 -434 -489 0
427 428 435 490 0
-427 -428 -435 -490 0
428 429 436 491 0
-428 -429 -436 -491 0
429 430 437 492 0
-429 -430 -437 -492 0
430 431 438 493 0
-430 -431 -438 -493 0
431 432 439 494 0
-431 -432 -439 -494 0
433 434 440 495 0
-433 -434 -440 -495 0
434 435 441 496 0
-434 -435 -441 -496 0
435 436 442 497 0
-435 -436 -442 -497 0
436 437 443 498 0
-436 -437 -443 -498 0
437 438 444 499 0
-437 -438 -444 -499 0
438 439 445 500 0
-438 -439 -445 -500 0
440 441 446 501 0
-440 -441 -446 -501 0
441 442 447 502 0
-441 -442 -447 -502 0
442 443 448 503 0
-442 -443 -448 -503 0
443 444 449 504 0
-443 -444 -449 -504 0
444 445 450 505 0
-444 -445 -450 -505 0
446 447 451 506 0
-446 -447 -451 -506 0
447 448 452 507 0
-447 -448 -452 -507 0
448 449 453 508 0
-448 -449 -453 -508 0
449 450 454 509 0
-449 -450 -454 -509 0
451 452 455 510 0
-451 -452 -455 -510 0
452 453 456 511 0
-452 -453 -456 -511 0
453 454 457 512 0
-453 -454 -457 -512 0
455 456 458 513 0
-455 -456 -458 -513 0
456 457 459 514 0
-456 -457 -459 -514 0
458 459 460 515 0
-458 -459 -460 -515 0
461 462 471 516 0
-461 -462 -471 -516 0
462 463 472 517 0
-462 -463 -472 -517 0
463 464 473 518 0
-463 -464 -473 -518 0
464 465 474 519 0
-464 -465 -474 -519 0
465 466 475 520 0
-465 -466 -475 -520 0
466 467 476 521 0
-466 -467 -476 -521 0
467 468 477 522 0
-467 -468 -477 -522 0
468 469 478 523 0
-468 -469 -478 -523 0
469 470 479 524 0
-469 -470 -479 -524 0
471 472 480 525 0
-471 -472 -480 -525 0
472 473 481 526 0
-472 -473 -481 -526 0
473 474 482 527 0
-473 -474 -482 -527 0
474 475 483 528 0
-474 -475 -483 -528 0
475 476 484 529 0
-475 -476 -484 -529 0
476 477 485 530 0
-476 -477 -485 -530 0
477 478 486 531 0
-477 -478 -486 -531 0
478 479 487 532 0
-478 -479 -487 -532 0
480 481 488 533 0
-480 -481 -488 -533 0
481 482 489 534 0
-481 -482 -489 -534 0
482 483 490 535 0
-482 -483 -490 -535 0
483 484 491 536 0
-483 -484 -491 -536 0
484 485 492 537 0
-484 -485 -492 -537 0
485 486 493 538 0
-485 -486 -493 -538 0
486 487 494 539 0
-486 -487 -494 -539 0
488 489 495 540 0
-488 -489 -495 -540 0
489 490 496 541 0
-489 -490 -496 -541 0
490 491 497 542 0
-490 -491 -497 -542 0
491 492 498 543 0
-491 -492 -498 -543 0
492 493 499 544 0
-492 -493 -499 -544 0
493 494 500 545 0
-493 -494 -500 -545 0
495 496 501 546 0
-495 -496 -501 -546 0
496 497 502 547 0
-496 -497 -502 -547 0
497 498 503 548 0
-497 -498 -503 -548 0
498 499 504 549 0
-498 -499 -504 -549 0
499 500 505 550 0
-499 -500 -505 -550 0
501 502 506 551 0
-501 -502 -506 -551 0
502 503 507 552 0
-502 -503 -507 -552 0
503 504 508 553 0
-503 -504 -508 -553 0
504 505 509 554 0
-504 -505 -509 -554 0
506 507 510 555 0
-506 -507 -510 -555 0
507 508 511 556 0
-507 -508 -511 -556 0
508 509 512 557 0
-508 -509 -512 -557 0
510 511 513 558 0
-510 -511 -513 -558 0
511 512 514 559 0
-511 -512 -514 -559 0
513 514 515 560 0
-513 -514 -515 -560 0
516 517 525 561 0
-516 -517 -525 -561 0
517 518 526 562 0
-517 -518 -526 -562 0
518 519 527 563 0
-518 -519 -527 -563 0
519 520 528 564 0
-519 -520 -528 -564 0
520 521 529 565 0
-520 -521 -529 -565 0
521 522 530 566 0
-521 -522 -530 -566 0
522 523 531 567 0
-522 -523 -531 -567 0
523 524 532 568 0
-523 -524 -532 -568 0
525 526 533 569 0
-525 -526 -533 -569 0
526 527 534 570 0
-526 -527 -534 -570 0
527 528 535 571 0
-527 -528 -535 -571 0
528 529 536 572 0
-528 -529 -536 -572 0
529 530 537 573 0
-529 -530 -537 -573 0
530 531 538 574 0
-530 -531 -538 -574 0
531 532 539 575 0
-531 -532 -539 -575 0
533 534 540 576 0
-533 -534 -540 -576 0
534 535 541 577 0
-534 -535 -541 -577 0
535 536 542 578 0
-535 -536 -542 -578 0
536 537 543 579 0
-536 -537 -543 -579 0
537 538 544 580 0
-537 -538 -544 -580 0
538 539 545 581 0
-538 -539 -545 -581 0
540 541 546 582 0
-540 -541 -546 -582 0
541 542 547 583 0
-541 -542 -547 -583 0
542 543 548 584 0
-542 -543 -548 -584 0
543 544 549 585 0
-543 -544 -549 -585 0
544 545 550 586 0
-544 -545 -550 -586 0
546 547 551 587 0
-546 -547 -551 -587 0
547 548 552 588 0
-547 -548 -552 -588 0
548 549 553 589 0
-548 -549 -553 -589 0
549 550 554 590 0
-549 -550 -554 -590 0
551 552 555 591 0
-551 -552 -555 -591 0
552 553 556 592 0
-552 -553 -556 -592 0
553 554 557 593 0
-553 -554 -557 -593 0
555 556 558 594 0
-555 -556 -558 -594 0
556 557 559 595 0
-556 -557 -559 -595 0
558 559 560 596 0
-558 -559 -560 -596 0
561 562 569 597 0
-561 -562 -569 -597 0
562 563 570 598 0
-562 -563 -570 -598 0
563 564 571 599 0
-563 -564 -571 -599 0
564 565 572 600 0
-564 -565 -572 -600 0
565 566 573 601 0
-565 -566 -573 -601 0
566 567 574 602 0
-566 -567 -574 -602 0
567 568 575 603 0
-567 -568 -575 -603 0
569 570 576 604 0
-569 -570 -576 -604 0
570 571 577 605 0
-570 -571 -577 -605 0
571 572 578 606 0
-571 -572 -578 -606 0
572 573 579 607 0
-572 -573 -579 -607 0
573 574 580 608 0
-573 -574 -580 -608 0
574 575 581 609 0
-574 -575 -581 -609 0
576 577 582 610 0
-576 -577 -582 -610 0
577 578 583 611 0
-577 -578 -583 -611 0
578 579 584 612 0
-578 -579 -584 -612 0
579 580 585 613 0
-579 -580 -585 -613 0
580 581 586 614 0
-580 -581 -586 -614 0
582 583 587 615 0
-582 -583 -587 -615 0
583 584 588 616 0
-583 -584 -588 -616 0
584 585 589 617 0
-584 -585 -589 -617 0
585 586 590 618 0
-585 -586 -590 -618 0
587 588 591 619 0
-587 -588 -591 -619 0
588 589 592 620 0
-588 -589 -592 -620 0
589 590 593 621 0
-589 -590 -593 -621 0
591 592 594 622 0
-591 -592 -594 -622 0
592 593 595 623 0
-592 -593 -595 -623 0
594 595 596 624 0
-594 -595 -596 -624 0
597 598 604 625 0
-597 -598 -604 -625 0
598 599 605 626 0
-598 -599 -605 -626 0
599 600 606 627 0
-599 -600 -606 -627 0
600 601 607 628 0
-600 -601 -607 -628 0
601 602 608 629 0
-601 -602 -608 -629 0
602 603 609 630 0
-602 -603 -609 -630 0
604 605 610 631 0
-604 -605 -610 -631 0
605 606 611 632 0
-605 -606 -611 -632 0
606 607 612 633 0
-606 -607 -612 -633 0
607 608 613 634 0
-607 -608 -613 -634 0
608 609 614 635 0
-608 -609 -614 -635 0
610 611 615 636 0
-610 -611 -615 -636 0
611 612 616 637 0
-611 -612 -616 -637 0
612 613 617 638 0
-612 -613 -617 -638 0
613 614 618 639 0
-613 -614 -618 -639 0
615 616 619 640 0
-615 -616 -619 -640 0
616 617 620 641 0
-616 -617 -620 -641 0
617 618 621 642 0
-617 -618 -621 -642 0
619 620 622 643 0
-619 -620 -622 -643 0
620 621 623 644 0
-620 -621 -623 -644 0
622 623 624 645 0
-622 -623 -624 -645 0
625 626 631 646 0
-625 -626 -631 -646 0
626 627 632 647 0
-626 -627 -632 -647 0
627 628 633 648 0
-627 -628 -633 -648 0
628 629 634 649 0
-628 -629 -634 -649 0
629 630 635 650 0
-629 -630 -635 -650 0
631 632 636 651 0
-631 -632 -636 -651 0
632 633 637 652 0
-632 -633 -637 -652 0
633 634 638 653 0
-633 -634 -638 -653 0
634 635 639 654 0
-634 -635 -639 -654 0
636 637 640 655 0
-636 -637 -640 -655 0
637 638 641 656 0
-637 -638 -641 -656 0
638 639 642 657 0
-638 -639 -642 -657 0
640 641 643 658 0
-640 -641 -643 -658 0
641 642 644 659 0
-641 -642 -644 -659 0
643 644 645 660 0
-643 -644 -645 -660 0
646 647 651 661 0
-646 -647 -651 -661 0
647 648 652 662 0
-647 -648 -652 -662 0
648 649 653 663 0
-648 -649 -653 -663 0
649 650 654 664 0
-649 -650 -654 -664 0
651 652 655 665 0
-651 -652 -655 -665 0
652 653 656 666 0
-652 -653 -656 -666 0
653 654 657 667 0
-653 -654 -657 -667 0
655 656 658 668 0
-655 -656 -658 -668 0
656 657 659 669 0
-656 -657 -659 -669 0
658 659 660 670 0
-658 -659 -660 -670 0
661 662 665 671 0
-661 -662 -665 -671 0
662 663 666 672 0
-662 -663 -666 -672 0
663 664 667 673 0
-663 -664 -667 -673 0
665 666 668 674 0
-665 -666 -668 -674 0
666 667 669 675 0
-666 -667 -669 -675 0
668 669 670 676 0
-668 -669 -670 -676 0
671 672 674 677 0
-671 -672 -674 -677 0
672 673 675 678 0
-672 -673 -675 -678 0
674 675 676 679 0
-674 -675 -676 -679 0
677 678 679 680 0
-677 -678 -679 -680 0
4 7 45 226 0
-4 -7 -45 -226 0
3 10 47 227 0
-3 -10 -47 -227 0
7 13 49 228 0
-7 -13 -49 -228 0
10 16 51 229 0
-10 -16 -51 -229 0
13 19 53 230 0
-13 -19 -53 -230 0
16 22 55 231 0
-16 -22 -55 -231 0
19 25 57 232 0
-19 -25 -57 -232 0
22 28 59 233 0
-22 -28 -59 -233 0
25 31 61 234 0
-25 -31 -61 -234 0
28 34 63 235 0
-28 -34 -63 -235 0
31 37 65 236 0
-31 -37 -65 -236 0
34 40 67 237 0
-34 -40 -67 -237 0
37 43 69 238 0
-37 -43 -69 -238 0
2 9 71 239 0
-2 -9 -71 -239 0
6 12 73 240 0
-6 -12 -73 -240 0
9 15 75 241 0
-9 -15 -75 -241 0
12 18 77 242 0
-12 -18 -77 -242 0
15 21 79 243 0
-15 -21 -79 -243 0
18 24 81 244 0
-18 -24 -81 -244 0
21 27 83 245 0
-21 -27 -83 -245 0
24 30 85 246 0
-24 -30 -85 -246 0
27 33 87 247 0
-27 -33 -87 -247 0
30 36 89 248 0
-30 -36 -89 -248 0
33 39 91 249 0
-33 -39 -91 -249 0
36 42 93 250 0
-36 -42 -93 -250 0
45 49 95 251 0
-45 -49 -95 -251 0
47 51 97 252 0
-47 -51 -97 -252 0
49 53 99 253 0
-49 -53 -99 -253 0
51 55 101 254 0
-51 -55 -101 -254 0
53 57 103 255 0
-53 -57 -103 -255 0
55 59 105 256 0
-55 -59 -105 -256 0
57 61 107 257 0
-57 -61 -107 -257 0
59 63 109 258 0
-59 -63 -109 -258 0
61 65 111 259 0
-61 -65 -111 -259 0
63 67 113 260 0
-63 -67 -113 -260 0
65 69 115 261 0
-65 -69 -115 -261 0
71 75 117 262 0
-71 -75 -117 -262 0
73 77 119 263 0
-73 -77 -119 -263 0
75 79 121 264 0
-75 -79 -121 -264 0
77 81 123 265 0
-77 -81 -123 -265 0
79 83 125 266 0
-79 -83 -125 -266 0
81 85 127 267 0
-81 -85 -127 -267 0
83 87 129 268 0
-83 -87 -129 -268 0
85 89 131 269 0
-85 -89 -131 -269 0
87 91 133 270 0
-87 -91 -133 -270 0
89 93 135 271 0
-89 -93 -135 -271 0
95 99 137 272 0
-95 -99 -137 -272 0
97 101 139 273 0
-97 -101 -139 -273 0
99 103 141 274 0
-99 -103 -141 -274 0
101 105 143 275 0
-101 -105 -143 -275 0
103 107 145 276 0
-103 -107 -145 -276 0
105 109 147 277 0
-105 -109 -147 -277 0
107 111 149 278 0
-107 -111 -149 -278 0
109 113 151 279 0
-109 -113 -151 -279 0
111 115 153 280 0
-111 -115 -153 -280 0
117 121 155 281 0
-117 -121 -155 -281 0
119 123 157 282 0
-119 -123 -157 -282 0
121 125 159 283 0
-121 -125 -159 -283 0
123 127 161 284 0
-123 -127 -161 -284 0
125 129 163 285 0
-125 -129 -163 -285 0
127 131 165 286 0
-127 -131 -165 -286 0
129 133 167 287 0
-129 -133 -167 -287 0
131 135 169 288 0
-131 -135 -169 -288 0
137 141 171 289 0
-137 -141 -171 -289 0
139 143 173 290 0
-139 -143 -173 -290 0
141 145 175 291 0
-141 -145 -175 -291 0
143 147 177 292 0
-143 -147 -177 -292 0
145 149 179 293 0
-145 -149 -179 -293 0
147 151 181 294 0
-147 -151 -181 -294 0
149 153 183 295 0
-149 -153 -183 -295 0
155 159 185 296 0
-155 -159 -185 -296 0
157 161 187 297 0
-157 -161 -187 -297 0
159 163 189 298 0
-159 -163 -189 -298 0
161 165 191 299 0
-161 -165 -191 -299 0
163 167 193 300 0
-163 -167 -193 -300 0
165 169 195 301 0
-165 -169 -195 -301 0
171 175 197 302 0
-171 -175 -197 -302 0
173 177 199 303 0
-173 -177 -199 -303 0
175 179 201 304 0
-175 -179 -201 -304 0
177 181 203 305 0
-177 -181 -203 -305 0
179 183 205 306 0
-179 -183 -205 -306 0
185 189 207 307 0
-185 -189 -207 -307 0
187 191 209 308 0
-187 -191 -209 -308 0
189 193 211 309 0
-189 -193 -211 -309 0
191 195 213 310 0
-191 -195 -213 -310 0
197 201 215 311 0
-197 -201 -215 -311 0
199 203 217 312 0
-199 -203 -217 -312 0
201 205 219 313 0
-201 -205 -219 -313 0
207 211 221 314 0
-207 -211 -221 -314 0
209 213 223 315 0
-209 -213 -223 -315 0
215 219 225 316 0
-215 -219 -225 -316 0
1 8 70 317 0
-1 -8 -70 -317 0
5 11 72 318 0
-5 -11 -72 -318 0
8 14 74 319 0
-8 -14 -74 -319 0
11 17 76 320 0
-11 -17 -76 -320 0
14 20 78 321 0
-14 -20 -78 -321 0
17 23 80 322 0
-17 -23 -80 -322 0
20 26 82 323 0
-20 -26 -82 -323 0
23 29 84 324 0
-23 -29 -84 -324 0
26 32 86 325 0
-26 -32 -86 -325 0
29 35 88 326 0
-29 -35 -88 -326 0
32 38 90 327 0
-32 -38 -90 -327 0
35 41 92 328 0
-35 -41 -92 -328 0
44 48 94 329 0
-44 -48 -94 -329 0
46 50 96 330 0
-46 -50 -96 -330 0
48 52 98 331 0
-48 -52 -98 -331 0
50 54 100 332 0
-50 -54 -100 -332 0
52 56 102 333 0
-52 -56 -102 -333 0
54 58 104 334 0
-54 -58 -104 -334 0
56 60 106 335 0
-56 -60 -106 -335 0
58 62 108 336 0
-58 -62 -108 -336 0
60 64 110 337 0
-60 -64 -110 -337 0
62 66 112 338 0
-62 -66 -112 -338 0
64 68 114 339 0
-64 -68 -114 -339 0
70 74 116 340 0
-70 -74 -116 -340 0
72 76 118 341 0
-72 -76 -118 -341 0
74 78 120 342 0
-74 -78 -120 -342 0
76 80 122 343 0
-76 -80 -122 -343 0
78 82 124 344 0
-78 -82 -124 -344 0
80 84 126 345 0
-80 -84 -126 -345 0
82 86 128 346 0
-82 -86 -128 -346 0
84 88 130 347 0
-84 -88 -130 -347 0
86 90 132 348 0
-86 -90 -132 -348 0
88 92 134 349 0
-88 -92 -134 -349 0
94 98 136 350 0
-94 -98 -136 -350 0
96 100 138 351 0
-96 -100 -138 -351 0
98 102 140 352 0
-98 -102 -140 -352 0
100 104 142 353 0
-100 -104 -142 -353 0
102 106 144 354 0
-102 -106 -144 -354 0
104 108 146 355 0
-104 -108 -146 -355 0
106 110 148 356 0
-106 -110 -148 -356 0
108 112 150 357 0
-108 -112 -150 -357 0
110 114 152 358 0
-110 -114 -152 -358 0
116 120 154 359 0
-116 -120 -154 -359 0
118 122 156 360 0
-118 -122 -156 -360 0
120 124 158 361 0
-120 -124 -158 -361 0
122 126 160 362 0
-122 -126 -160 -362 0
124 128 162 363 0
-124 -128 -162 -363 0
126 130 164 364 0
-126 -130 -164 -364 0
128 132 166 365 0
-128 -132 -166 -365 0
130 134 168 366 0
-130 -134 -168 -366 0
136 140 170 367 0
-136 -140 -170 -367 0
138 142 172 368 0
-138 -142 -172 -368 0
140 144 174 369 0
-140 -144 -174 -369 0
142 146 176 370 0
-142 -146 -176 -370 0
144 148 178 371 0
-144 -148 -178 -371 0
146 150 180 372 0
-146 -150 -180 -372 0
148 152 182 373 0
-148 -152 -182 -373 0
154 158 184 374 0
-154 -158 -184 -374 0
156 160 186 375 0
-156 -160 -186 -375 0
158 162 188 376 0
-158 -162 -188 -376 0
160 164 190 377 0
-160 -164 -190 -377 0
162 166 192 378 0
-162 -166 -192 -378 0
164 168 194 379 0
-164 -168 -194 -379 0
170 174 196 380 0
-170 -174 -196 -380 0
172 176 198 381 0
-172 -176 -198 -381 0
174 178 200 382 0
-174 -178 -200 -382 0
176 180 202 383 0
-176 -180 -202 -383 0
178 182 204 384 0
-178 -182 -204 -384 0
184 188 206 385 0
-184 -188 -206 -385 0
186 190 208 386 0
-186 -190 -208 -386 0
188 192 210 387 0
-188 -192 -210 -387 0
190 194 212 388 0
-190 -194 -212 -388 0
196 200 214 389 0
-196 -200 -214 -389 0
198 202 216 390 0
-198 -202 -216 -390 0
200 204 218 391 0
-200 -204 -218 -391 0
206 210 220 392 0
-206 -210 -220 -392 0
208 212 222 393 0
-208 -212 -222 -393 0
214 218 224 394 0
-214 -218 -224 -394 0
226 228 251 395 0
-226 -228 -251 -395 0
227 229 252 396 0
-227 -229 -252 -396 0
228 230 253 397 0
-228 -230 -253 -397 0
229 231 254 398 0
-229 -231 -254 -398 0
230 232 255 399 0
-230 -232 -255 -399 0
231 233 256 400 0
-231 -233 -256 -400 0
232 234 257 401 0
-232 -234 -257 -401 0
233 235 258 402 0
-233 -235 -258 -402 0
234 236 259 403 0
-234 -236 -259 -403 0
235 237 260 404 0
-235 -237 -260 -404 0
236 238 261 405 0
-236 -238 -261 -405 0
239 241 262 406 0
-239 -241 -262 -406 0
240 242 263 407 0
-240 -242 -263 -407 0
241 243 264 408 0
-241 -243 -264 -408 0
242 244 265 409 0
-242 -244 -265 -409 0
243 245 266 410 0
-243 -245 -266 -410 0
244 246 267 411 0
-244 -246 -267 -411 0
245 247 268 412 0
-245 -247 -268 -412 0
246 248 269 413 0
-246 -248 -269 -413 0
247 249 270 414 0
-247 -249 -270 -414 0
248 250 271 415 0
-248 -250 -271 -415 0
251 253 272 416 0
-251 -253 -272 -416 0
252 254 273 417 0
-252 -254 -273 -417 0
253 255 274 418 0
-253 -255 -274 -418 0
254 256 275 419 0
-254 -256 -275 -419 0
255 257 276 420 0
-255 -257 -276 -420 0
256 258 277 421 0
-256 -258 -277 -421 0
257 259 278 422 0
-257 -259 -278 -422 0
258 260 279 423 0
-258 -260 -279 -423 0
259 261 280 424 0
-259 -261 -280 -424 0
262 264 281 425 0
-262 -264 -281 -425 0
263 265 282 426 0
-263 -265 -282 -426 0
264 266 283 427 0
-264 -266 -283 -427 0
265 267 284 428 0
-265 -267 -284 -428 0
266 268 285 429 0
-266 -268 -285 -429 0
267 269 286 430 0
-267 -269 -286 -430 0
268 270 287 431 0
-268 -270 -287 -431 0
269 271 288 432 0
-269 -271 -288 -432 0
272 274 289 433 0
-272 -274 -289 -433 0
273 275 290 434 0
-273 -275 -290 -434 0
274 276 291 435 0
-274 -276 -291 -435 0
275 277 292 436 0
-275 -277 -292 -436 0
276 278 293 437 0
-276 -278 -293 -437 0
277 279 294 438 0
-277 -279 -294 -438 0
278 280 295 439 0
-278 -280 -295 -439 0
281 283 296 440 0
-281 -283 -296 -440 0
282 284 297 441 0
-282 -284 -297 -441 0
283 285 298 442 0
-283 -285 -298 -442 0
284 286 299 443 0
-284 -286 -299 -443 0
285 287 300 444 0
-285 -287 -300 -444 0
286 288 301 445 0
-286 -288 -301 -445 0
289 291 302 446 0
-289 -291 -302 -446 0
290 292 303 447 0
-290 -292 -303 -447 0
291 293 304 448 0
-291 -293 -304 -448 0
292 294 305 449 0
-292 -294 -305 -449 0
293 295 306 450 0
-293 -295 -306 -450 0
296 298 307 451 0
-296 -298 -307 -451 0
297 299 308 452 0
-297 -299 -308 -452 0
298 300 309 453 0
-298 -300 -309 -453 0
299 301 310 454 0
-299 -301 -310 -454 0
302 304 311 455 0
-302 -304 -311 -455 0
303 305 312 456 0
-303 -305 -312 -456 0
304 306 313 457 0
-304 -306 -313 -457 0
307 309 314 458 0
-307 -309 -314 -458 0
308 310 315 459 0
-308 -310 -315 -459 0
311 313 316 460 0
-311 -313 -316 -460 0
317 319 340 461 0
-317 -319 -340 -461 0
318 320 341 462 0
-318 -320 -341 -462 0
319 321 342 463 0
-319 -321 -342 -463 0
320 322 343 464 0
-320 -322 -343 -464 0
321 323 344 465 0
-321 -323 -344 -465 0
322 324 345 466 0
-322 -324 -345 -466 0
323 325 346 467 0
-323 -325 -346 -467 0
324 326 347 468 0
-324 -326 -347 -468 0
325 327 348 469 0
-325 -327 -348 -469 0
326 328 349 470 0
-326 -328 -349 -470 0
329 331 350 471 0
-329 -331 -350 -471 0
330 332 351 472 0
-330 -332 -351 -472 0
331 333 352 473 0
-331 -333 -352 -473 0
332 334 353 474 0
-332 -334 -353 -474 0
333 335 354 475 0
-333 -335 -354 -475 0
334 336 355 476 0
-334 -336 -355 -476 0
335 337 356 477 0
-335 -337 -356 -477 0
336 338 357 478 0
-336 -338 -357 -478 0
337 339 358 479 0
-337 -339 -358 -479 0
340 342 359 480 0
-340 -342 -359 -480 0
341 343 360 481 0
-341 -343 -360 -481 0
342 344 361 482 0
-342 -344 -361 -482 0
343 345 362 483 0
-343 -345 -362 -483 0
344 346 363 484 0
-344 -346 -363 -484 0
345 347 364 485 0
-345 -347 -364 -485 0
346 348 365 486 0
-346 -348 -365 -486 0
347 349 366 487 0
-347 -349 -366 -487 0
350 352 367 488 0
-350 -352 -367 -488 0
351 353 368 489 0
-351 -353 -368 -489 0
352 354 369 490 0
-352 -354 -369 -490 0
353 355 370 491 0
-353 -355 -370 -491 0
354 356 371 492 0
-354 -356 -371 -492 0
355 357 372 493 0
-355 -357 -372 -493 0
356 358 373 494 0
-356 -358 -373 -494 0
359 361 374 495 0
-359 -361 -374 -495 0
360 362 375 496 0
-360 -362 -375 -496 0
361 363 376 497 0
-361 -363 -376 -497 0
362 364 377 498 0
-362 -364 -377 -498 0
363 365 378 499 0
-363 -365 -378 -499 0
364 366 379 500 0
-364 -366 -379 -500 0
367 369 380 501 0
-367 -369 -380 -501 0
368 370 381 502 0
-368 -370 -381 -502 0
369 371 382 503 0
-369 -371 -382 -503 0
370 372 383 504 0
-370 -372 -383 -504 0
371 373 384 505 0
-371 -373 -384 -505 0
374 376 385 506 0
-374 -376 -385 -506 0
375 377 386 507 0
-375 -377 -386 -507 0
376 378 387 508 0
-376 -378 -387 -508 0
377 379 388 509 0
-377 -379 -388 -509 0
380 382 389 510 0
-380 -382 -389 -510 0
381 383 390 511 0
-381 -383 -390 -511 0
382 384 391 512 0
-382 -384 -391 -512 0
385 387 392 513 0
-385 -387 -392 -513 0
386 388 393 514 0
-386 -388 -393 -514 0
389 391 394 515 0
-389 -391 -394 -515 0
395 397 416 516 0
-395 -397 -416 -516 0
396 398 417 517 0
-396 -398 -417 -517 0
397 399 418 518 0
-397 -399 -418 -518 0
398 400 419 519 0
-398 -400 -419 -519 0
399 401 420 520 0
-399 -401 -420 -520 0
400 402 421 521 0
-400 -402 -421 -521 0
401 403 422 522 0
-401 -403 -422 -522 0
402 404 423 523 0
-402 -404 -423 -523 0
403 405 424 524 0
-403 -405 -424 -524 0
406 408 425 525 0
-406 -408 -425 -525 0
407 409 426 526 0
-407 -409 -426 -526 0
408 410 427 527 0
-408 -410 -427 -527 0
409 411 428 528 0
-409 -411 -428 -528 0
410 412 429 529 0
-410 -412 -429 -529 0
411 413 430 530 0
-411 -413 -430 -530 0
412 414 431 531 0
-412 -414 -431 -531 0
413 415 432 532 0
-413 -415 -432 -532 0
416 418 433 533 0
-416 -418 -433 -533 0
417 419 434 534 0
-417 -419 -434 -534 0
418 420 435 535 0
-418 -420 -435 -535 0
419 421 436 536 0
-419 -421 -436 -536 0
420 422 437 537 0
-420 -422 -437 -537 0
421 423 438 538 0
-421 -423 -438 -538 0
422 424 439 539 0
-422 -424 -439 -539 0
425 427 440 540 0
-425 -427 -440 -540 0
426 428 441 541 0
-426 -428 -441 -541 0
427 429 442 542 0
-427 -429 -442 -542 0
428 430 443 543 0
-428 -430 -443 -543 0
429 431 444 544 0
-429 -431 -444 -544 0
430 432 445 545 0
-430 -432 -445 -545 0
433 435 446 546 0
-433 -435 -446 -546 0
434 436 447 547 0
-434 -436 -447 -547 0
435 437 448 548 0
-435 -437 -448 -548 0
436 438 449 549 0
-436 -438 -449 -549 0
437 439 450 550 0
-437 -439 -450 -550 0
440 442 451 551 0
-440 -442 -451 -551 0
441 443 452 552 0
-441 -443 -452 -552 0
442 444 453 553 0
-442 -444 -453 -553 0
443 445 454 554 0
-443 -445 -454 -554 0
446 448 455 555 0
-446 -448 -455 -555 0
447 449 456 556 0
-447 -449 -456 -556 0
448 450 457 557 0
-448 -450 -457 -557 0
451 453 458 558 0
-451 -453 -458 -558 0
452 454 459 559 0
-452 -454 -459 -559 0
455 457 460 560 0
-455 -457 -460 -560 0
461 463 480 561 0
-461 -463 -480 -561 0
462 464 481 562 0
-462 -464 -481 -562 0
463 465 482 563 0
-463 -465 -482 -563 0
464 466 483 564 0
-464 -466 -483 -564 0
465 467 484 565 0
-465 -467 -484 -565 0
466 468 485 566 0
-466 -468 -485 -566 0
467 469 486 567 0
-467 -469 -486 -567 0
468 470 487 568 0
-468 -470 -487 -568 0
471 473 488 569 0
-471 -473 -488 -569 0
472 474 489 570 0
-472 -474 -489 -570 0
473 475 490 571 0
-473 -475 -490 -571 0
474 476 491 572 0
-474 -476 -491 -572 0
475 477 492 573 0
-475 -477 -492 -573 0
476 478 493 574 0
-476 -478 -493 -574 0
477 479 494 575 0
-477 -479 -494 -575 0
480 482 495 576 0
-480 -482 -495 -576 0
481 483 496 577 0
-481 -483 -496 -577 0
482 484 497 578 0
-482 -484 -497 -578 0
483 485 498 579 0
-483 -485 -498 -579 0
484 486 499 580 0
-484 -486 -499 -580 0
485 487 500 581 0
-485 -487 -500 -581 0
488 490 501 582 0
-488 -490 -501 -582 0
489 491 502 583 0
-489 -491 -502 -583 0
490 492 503 584 0
-490 -492 -503 -584 0
491 493 504 585 0
-491 -493 -504 -585 0
492 494 505 586 0
-492 -494 -505 -586 0
495 497 506 587 0
-495 -497 -506 -587 0
496 498 507 588 0
-496 -498 -507 -588 0
497 499 508 589 0
-497 -499 -508 -589 0
498 500 509 590 0
-498 -500 -509 -590 0
501 503 510 591 0
-501 -503 -510 -591 0
502 504 511 592 0
-502 -504 -511 -592 0
503 505 512 593 0
-503 -505 -512 -593 0
506 508 513 594 0
-506 -508 -513 -594 0
507 509 514 595 0
-507 -509 -514 -595 0
510 512 515 596 0
-510 -512 -515 -596 0
516 518 533 597 0
-516 -518 -533 -597 0
517 519 534 598 0
-517 -519 -534 -598 0
518 520 535 599 0
-518 -520 -535 -599 0
519 521 536 600 0
-519 -521 -536 -600 0
520 522 537 601 0
-520 -522 -537 -601 0
521 523 538 602 0
-521 -523 -538 -602 0
522 524 539 603 0
-522 -524 -539 -603 0
525 527 540 604 0
-525 -527 -540 -604 0
526 528 541 605 0
-526 -528 -541 -605 0
527 529 542 606 0
-527 -529 -542 -606 0
528 530 543 607 0
-528 -530 -543 -607 0
529 531 544 608 0
-529 -531 -544 -608 0
530 532 545 609 0
-530 -532 -545 -609 0
533 535 546 610 0
-533 -535 -546 -610 0
534 536 547 611 0
-534 -536 -547 -611 0
535 537 548 612 0
-535 -537 -548 -612 0
536 538 549 613 0
-536 -538 -549 -613 0
537 539 550 614 0
-537 -539 -550 -614 0
540 542 551 615 0
-540 -542 -551 -615 0
541 543 552 616 0
-541 -543 -552 -616 0
542 544 553 617 0
-542 -544 -553 -617 0
543 545 554 618 0
-543 -545 -554 -618 0
546 548 555 619 0
-546 -548 -555 -619 0
547 549 556 620 0
-547 -549 -556 -620 0
548 550 557 621 0
-548 -550 -557 -621 0
551 553 558 622 0
-551 -553 -558 -622 0
552 554 559 623 0
-552 -554 -559 -623 0
555 557 560 624 0
-555 -557 -560 -624 0
561 563 576 625 0
-561 -563 -576 -625 0
562 564 577 626 0
-562 -564 -577 -626 0
563 565 578 627 0
-563 -565 -578 -627 0
564 566 579 628 0
-564 -566 -579 -628 0
565 567 580 629 0
-565 -567 -580 -629 0
566 568 581 630 0
-566 -568 -581 -630 0
569 571 582 631 0
-569 -571 -582 -631 0
570 572 583 632 0
-570 -572 -583 -632 0
571 573 584 633 0
-571 -573 -584 -633 0
572 574 585 634 0
-572 -574 -585 -634 0
573 575 586 635 0
-573 -575 -586 -635 0
576 578 587 636 0
-576 -578 -587 -636 0
577 579 588 637 0
-577 -579 -588 -637 0
578 580 589 638 0
-578 -580 -589 -638 0
579 581 590 639 0
-579 -581 -590 -639 0
582 584 591 640 0
-582 -584 -591 -640 0
583 585 592 641 0
-583 -585 -592 -641 0
584 586 593 642 0
-584 -586 -593 -642 0
587 589 594 643 0
-587 -589 -594 -643 0
588 590 595 644 0
-588 -590 -595 -644 0
591 593 596 645 0
-591 -593 -596 -645 0
597 599 610 646 0
-597 -599 -610 -646 0
598 600 611 647 0
-598 -600 -611 -647 0
599 601 612 648 0
-599 -601 -612 -648 0
600 602 613 649 0
-600 -602 -613 -649 0
601 603 614 650 0
-601 -603 -614 -650 0
604 606 615 651 0
-604 -606 -615 -651 0
605 607 616 652 0
-605 -607 -616 -652 0
606 608 617 653 0
-606 -608 -617 -653 0
607 609 618 654 0
-607 -609 -618 -654 0
610 612 619 655 0
-610 -612 -619 -655 0
611 613 620 656 0
-611 -613 -620 -656 0
612 614 621 657 0
-612 -614 -621 -657 0
615 617 622 658 0
-615 -617 -622 -658 0
616 618 623 659 0
-616 -618 -623 -659 0
619 621 624 660 0
-619 -621 -624 -660 0
625 627 636 661 0
-625 -627 -636 -661 0
626 628 637 662 0
-626 -628 -637 -662 0
627 629 638 663 0
-627 -629 -638 -663 0
628 630 639 664 0
-628 -630 -639 -664 0
631 633 640 665 0
-631 -633 -640 -665 0
632 634 641 666 0
-632 -634 -641 -666 0
633 635 642 667 0
-633 -635 -642 -667 0
636 638 643 668 0
-636 -638 -643 -668 0
637 639 644 669 0
-637 -639 -644 -669 0
640 642 645 670 0
-640 -642 -645 -670 0
646 648 655 671 0
-646 -648 -655 -671 0
647 649 656 672 0
-647 -649 -656 -672 0
648 650 657 673 0
-648 -650 -657 -673 0
651 653 658 674 0
-651 -653 -658 -674 0
652 654 659 675 0
-652 -654 -659 -675 0
655 657 660 676 0
-655 -657 -660 -676 0
661 663 668 677 0
-661 -663 -668 -677 0
662 664 669 678 0
-662 -664 -669 -678 0
665 667 670 679 0
-665 -667 -670 -679 0
671 673 676 680 0
-671 -673 -676 -680 0
4 10 71 317 0
-4 -10 -71 -317 0
3 13 73 318 0
-3 -13 -73 -318 0
7 16 75 319 0
-7 -16 -75 -319 0
10 19 77 320 0
-10 -19 -77 -320 0
13 22 79 321 0
-13 -22 -79 -321 0
16 25 81 322 0
-16 -25 -81 -322 0
19 28 83 323 0
-19 -28 -83 -323 0
22 31 85 324 0
-22 -31 -85 -324 0
25 34 87 325 0
-25 -34 -87 -325 0
28 37 89 326 0
-28 -37 -89 -326 0
31 40 91 327 0
-31 -40 -91 -327 0
34 43 93 328 0
-34 -43 -93 -328 0
2 12 95 329 0
-2 -12 -95 -329 0
6 15 97 330 0
-6 -15 -97 -330 0
9 18 99 331 0
-9 -18 -99 -331 0
12 21 101 332 0
-12 -21 -101 -332 0
15 24 103 333 0
-15 -24 -103 -333 0
18 27 105 334 0
-18 -27 -105 -334 0
21 30 107 335 0
-21 -30 -107 -335 0
24 33 109 336 0
-24 -33 -109 -336 0
27 36 111 337 0
-27 -36 -111 -337 0
30 39 113 338 0
-30 -39 -113 -338 0
33 42 115 339 0
-33 -42 -115 -339 0
45 51 117 340 0
-45 -51 -117 -340 0
47 53 119 341 0
-47 -53 -119 -341 0
49 55 121 342 0
-49 -55 -121 -342 0
51 57 123 343 0
-51 -57 -123 -343 0
53 59 125 344 0
-53 -59 -125 -344 0
55 61 127 345 0
-55 -61 -127 -345 0
57 63 129 346 0
-57 -63 -129 -346 0
59 65 131 347 0
-59 -65 -131 -347 0
61 67 133 348 0
-61 -67 -133 -348 0
63 69 135 349 0
-63 -69 -135 -349 0
71 77 137 350 0
-71 -77 -137 -350 0
73 79 139 351 0
-73 -79 -139 -351 0
75 81 141 352 0
-75 -81 -141 -352 0
77 83 143 353 0
-77 -83 -143 -353 0
79 85 145 354 0
-79 -85 -145 -354 0
81 87 147 355 0
-81 -87 -147 -355 0
83 89 149 356 0
-83 -89 -149 -356 0
85 91 151 357 0
-85 -91 -151 -357 0
87 93 153 358 0
-87 -93 -153 -358 0
95 101 155 359 0
-95 -101 -155 -359 0
97 103 157 360 0
-97 -103 -157 -360 0
99 105 159 361 0
-99 -105 -159 -361 0
101 107 161 362 0
-101 -107 -161 -362 0
103 109 163 363 0
-103 -109 -163 -363 0
105 111 165 364 0
-105 -111 -165 -364 0
107 113 167 365 0
-107 -113 -167 -365 0
109 115 169 366 0
-109 -115 -169 -366 0
117 123 171 367 0
-117 -123 -171 -367 0
119 125 173 368 0
-119 -125 -173 -368 0
121 127 175 369 0
-121 -127 -175 -369 0
123 129 177 370 0
-123 -129 -177 -370 0
125 131 179 371 0
-125 -131 -179 -371 0
127 133 181 372 0
-127 -133 -181 -372 0
129 135 183 373 0
-129 -135 -183 -373 0
137 143 185 374 0
-137 -143 -185 -374 0
139 145 187 375 0
-139 -145 -187 -375 0
141 147 189 376 0
-141 -147 -189 -376 0
143 149 191 377 0
-143 -149 -191 -377 0
145 151 193 378 0
-145 -151 -193 -378 0
147 153 195 379 0
-147 -153 -195 -379 0
155 161 197 380 0
-155 -161 -197 -380 0
157 163 199 381 0
-157 -163 -199 -381 0
159 165 201 382 0
-159 -165 -201 -382 0
161 167 203 383 0
-161 -167 -203 -383 0
163 169 205 384 0
-163 -169 -205 -384 0
171 177 207 385 0
-171 -177 -207 -385 0
173 179 209 386 0
-173 -179 -209 -386 0
175 181 211 387 0
-175 -181 -211 -387 0
177 183 213 388 0
-177 -183 -213 -388 0
185 191 215 389 0
-185 -191 -215 -389 0
187 193 217 390 0
-187 -193 -217 -390 0
189 195 219 391 0
-189 -195 -219 -391 0
197 203 221 392 0
-197 -203 -221 -392 0
199 205 223 393 0
-199 -205 -223 -393 0
207 213 225 394 0
-207 -213 -225 -394 0
1 11 94 395 0
-1 -11 -94 -395 0
5 14 96 396 0
-5 -14 -96 -396 0
8 17 98 397 0
-8 -17 -98 -397 0
11 20 100 398 0
-11 -20 -100 -398 0
14 23 102 399 0
-14 -23 -102 -399 0
17 26 104 400 0
-17 -26 -104 -400 0
20 29 106 401 0
-20 -29 -106 -401 0
23 32 108 402 0
-23 -32 -108 -402 0
26 35 110 403 0
-26 -35 -110 -403 0
29 38 112 404 0
-29 -38 -112 -404 0
32 41 114 405 0
-32 -41 -114 -405 0
44 50 116 406 0
-44 -50 -116 -406 0
46 52 118 407 0
-46 -52 -118 -407 0
48 54 120 408 0
-48 -54 -120 -408 0
50 56 122 409 0
-50 -56 -122 -409 0
52 58 124 410 0
-52 -58 -124 -410 0
54 60 126 411 0
-54 -60 -126 -411 0
56 62 128 412 0
-56 -62 -128 -412 0
58 64 130 413 0
-58 -64 -130 -413 0
60 66 132 414 0
-60 -66 -132 -414 0
62 68 134 415 0
-62 -68 -134 -415 0
70 76 136 416 0
-70 -76 -136 -416 0
72 78 138 417 0
-72 -78 -138 -417 0
74 80 140 418 0
-74 -80 -140 -418 0
76 82 142 419 0
-76 -82 -142 -419 0
78 84 144 420 0
-78 -84 -144 -420 0
80 86 146 421 0
-80 -86 -146 -421 0
82 88 148 422 0
-82 -88 -148 -422 0
84 90 150 423 0
-84 -90 -150 -423 0
86 92 152 424 0
-86 -92 -152 -424 0
94 100 154 425 0
-94 -100 -154 -425 0
96 102 156 426 0
-96 -102 -156 -426 0
98 104 158 427 0
-98 -104 -158 -427 0
100 106 160 428 0
-100 -106 -160 -428 0
102 108 162 429 0
-102 -108 -162 -429 0
104 110 164 430 0
-104 -110 -164 -430 0
106 112 166 431 0
-106 -112 -166 -431 0
108 114 168 432 0
-108 -114 -168 -432 0
116 122 170 433 0
-116 -122 -170 -433 0
118 124 172 434 0
-118 -124 -172 -434 0
120 126 174 435 0
-120 -126 -174 -435 0
122 128 176 436 0
-122 -128 -176 -436 0
124 130 178 437 0
-124 -130 -178 -437 0
126 132 180 438 0
-126 -132 -180 -438 0
128 134 182 439 0
-128 -134 -182 -439 0
136 142 184 440 0
-136 -142 -184 -440 0
138 144 186 441 0
-138 -144 -186 -441 0
140 146 188 442 0
-140 -146 -188 -442 0
142 148 190 443 0
-142 -148 -190 -443 0
144 150 192 444 0
-144 -150 -192 -444 0
146 152 194 445 0
-146 -152 -194 -445 0
154 160 196 446 0
-154 -160 -196 -446 0
156 162 198 447 0
-156 -162 -198 -447 0
158 164 200 448 0
-158 -164 -200 -448 0
160 166 202 449 0
-160 -166 -202 -449 0
162 168 204 450 0
-162 -168 -204 -450 0
170 176 206 451 0
-170 -176 -206 -451 0
172 178 208 452 0
-172 -178 -208 -452 0
174 180 210 453 0
-174 -180 -210 -453 0
176 182 212 454 0
-176 -182 -212 -454 0
184 190 214 455 0
-184 -190 -214 -455 0
186 192 216 456 0
-186 -192 -216 -456 0
188 194 218 457 0
-188 -194 -218 -457 0
196 202 220 458 0
-196 -202 -220 -458 0
198 204 222 459 0
-198 -204 -222 -459 0
206 212 224 460 0
-206 -212 -224 -460 0
226 229 262 461 0
-226 -229 -262 -461 0
227 230 263 462 0
-227 -230 -263 -462 0
228 231 264 463 0
-228 -231 -264 -463 0
229 232 265 464 0
-229 -232 -265 -464 0
230 233 266 465 0
-230 -233 -266 -465 0
231 234 267 466 0
-231 -234 -267 -466 0
232 235 268 467 0
-232 -235 -268 -467 0
233 236 269 468 0
-233 -236 -269 -468 0
234 237 270 469 0
-234 -237 -270 -469 0
235 238 271 470 0
-235 -238 -271 -470 0
239 242 272 471 0
-239 -242 -272 -471 0
240 243 273 472 0
-240 -243 -273 -472 0
241 244 274 473 0
-241 -244 -274 -473 0
242 245 275 474 0
-242 -245 -275 -474 0
243 246 276 475 0
-243 -246 -276 -475 0
244 247 277 476 0
-244 -247 -277 -476 0
245 248 278 477 0
-245 -248 -278 -477 0
246 249 279 478 0
-246 -249 -279 -478 0
247 250 280 479 0
-247 -250 -280 -479 0
251 254 281 480 0
-251 -254 -281 -480 0
252 255 282 481 0
-252 -255 -282 -481 0
253 256 283 482 0
-253 -256 -283 -482 0
254 257 284 483 0
-254 -257 -284 -483 0
255 258 285 484 0
-255 -258 -285 -484 0
256 259 286 485 0
-256 -259 -286 -485 0
257 260 287 486 0
-257 -260 -287 -486 0
258 261 288 487 0
-258 -261 -288 -487 0
262 265 289 488 0
-262 -265 -289 -488 0
263 266 290 489 0
-263 -266 -290 -489 0
264 267 291 490 0
-264 -267 -291 -490 0
265 268 292 491 0
-265 -268 -292 -491 0
266 269 293 492 0
-266 -269 -293 -492 0
267 270 294 493 0
-267 -270 -294 -493 0
268 271 295 494 0
-268 -271 -295 -494 0
272 275 296 495 0
-272 -275 -296 -495 0
273 276 297 496 0
-273 -276 -297 -496 0
274 277 298 497 0
-274 -277 -298 -497 0
275 278 299 498 0
-275 -278 -299 -498 0
276 279 300 499 0
-276 -279 -300 -499 0
277 280 301 500 0
-277 -280 -301 -500 0
281 284 302 501 0
-281 -284 -302 -501 0
282 285 303 502 0
-282 -285 -303 -502 0
283 286 304 503 0
-283 -286 -304 -503 0
284 287 305 504 0
-284 -287 -305 -504 0
285 288 306 505 0
-285 -288 -306 -505 0
289 292 307 506 0
-289 -292 -307 -506 0
290 293 308 507 0
-290 -293 -308 -507 0
291 294 309 508 0
-291 -294 -309 -508 0
292 295 310 509 0
-292 -295 -310 -509 0
296 299 311 510 0
-296 -299 -311 -510 0
297 300 312 511 0
-297 -300 -312 -511 0
298 301 313 512 0
-298 -301 -313 -512 0
302 305 314 513 0
-302 -305 -314 -513 0
303 306 315 514 0
-303 -306 -315 -514 0
307 310 316 515 0
-307 -310 -316 -515 0
317 320 350 516 0
-317 -320 -350 -516 0
318 321 351 517 0
-318 -321 -351 -517 0
319 322 352 518 0
-319 -322 -352 -518 0
320 323 353 519 0
-320 -323 -353 -519 0
321 324 354 520 0
-321 -324 -354 -520 0
322 325 355 521 0
-322 -325 -355 -521 0
323 326 356 522 0
-323 -326 -356 -522 0
324 327 357 523 0
-324 -327 -357 -523 0
325 328 358 524 0
-325 -328 -358 -524 0
329 332 359 525 0
-329 -332 -359 -525 0
330 333 360 526 0
-330 -333 -360 -526 0
331 334 361 527 0
-331 -334 -361 -527 0
332 335 362 528 0
-332 -335 -362 -528 0
333 336 363 529 0
-333 -336 -363 -529 0
334 337 364 530 0
-334 -337 -364 -530 0
335 338 365 531 0
-335 -338 -365 -531 0
336 339 366 532 0
-336 -339 -366 -532 0
340 343 367 533 0
-340 -343 -367 -533 0
341 344 368 534 0
-341 -344 -368 -534 0
342 345 369 535 0
-342 -345 -369 -535 0
343 346 370 536 0
-343 -346 -370 -536 0
344 347 371 537 0
-344 -347 -371 -537 0
345 348 372 538 0
-345 -348 -372 -538 0
346 349 373 539 0
-346 -349 -373 -539 0
350 353 374 540 0
-350 -353 -374 -540 0
351 354 375 541 0
-351 -354 -375 -541 0
352 355 376 542 0
-352 -355 -376 -542 0
353 356 377 543 0
-353 -356 -377 -543 0
354 357 378 544 0
-354 -357 -378 -544 0
355 358 379 545 0
-355 -358 -379 -545 0
359 362 380 546 0
-359 -362 -380 -546 0
360 363 381 547 0
-360 -363 -381 -547 0
361 364 382 548 0
-361 -364 -382 -548 0
362 365 383 549 0
-362 -365 -383 -549 0
363 366 384 550 0
-363 -366 -384 -550 0
367 370 385 551 0
-367 -370 -385 -551 0
368 371 386 552 0
-368 -371 -386 -552 0
369 372 387 553 0
-369 -372 -387 -553 0
370 373 388 554 0
-370 -373 -388 -554 0
374 377 389 555 0
-374 -377 -389 -555 0
375 378 390 556 0
-375 -378 -390 -556 0
376 379 391 557 0
-376 -379 -391 -557 0
380 383 392 558 0
-380 -383 -392 -558 0
381 384 393 559 0
-381 -384 -393 -559 0
385 388 394 560 0
-385 -388 -394 -560 0
395 398 425 561 0
-395 -398 -425 -561 0
396 399 426 562 0
-396 -399 -426 -562 0
397 400 427 563 0
-397 -400 -427 -563 0
398 401 428 564 0
-398 -401 -428 -564 0
399 402 429 565 0
-399 -402 -429 -565 0
400 403 430 566 0
-400 -403 -430 -566 0
401 404 431 567 0
-401 -404 -431 -567 0
402 405 432 568 0
-402 -405 -432 -568 0
406 409 433 569 0
-406 -409 -433 -569 0
407 410 434 570 0
-407 -410 -434 -570 0
408 411 435 571 0
-408 -411 -435 -571 0
409 412 436 572 0
-409 -412 -436 -572 0
410 413 437 573 0
-410 -413 -437 -573 0
411 414 438 574 0
-411 -414 -438 -574 0
412 415 439 575 0
-412 -415 -439 -575 0
416 419 440 576 0
-416 -419 -440 -576 0
417 420 441 577 0
-417 -420 -441 -577 0
418 421 442 578 0
-418 -421 -442 -578 0
419 422 443 579 0
-419 -422 -443 -579 0
420 423 444 580 0
-420 -423 -444 -580 0
421 424 445 581 0
-421 -424 -445 -581 0
425 428 446 582 0
-425 -428 -446 -582 0
426 429 447 583 0
-426 -429 -447 -583 0
427 430 448 584 0
-427 -430 -448 -584 0
428 431 449 585 0
-428 -431 -449 -585 0
429 432 450 586 0
-429 -432 -450 -586 0
433 436 451 587 0
-433 -436 -451 -587 0
434 437 452 588 0
-434 -437 -452 -588 0
435 438 453 589 0
-435 -438 -453 -589 0
436 439 454 590 0
-436 -439 -454 -590 0
440 443 455 591 0
-440 -443 -455 -591 0
441 444 456 592 0
-441 -444 -456 -592 0
442 445 457 593 0
-442 -445 -457 -593 0
446 449 458 594 0
-446 -449 -458 -594 0
447 450 459 595 0
-447 -450 -459 -595 0
451 454 460 596 0
-451 -454 -460 -596 0
461 464 488 597 0
-461 -464 -488 -597 0
462 465 489 598 0
-462 -465 -489 -598 0
463 466 490 599 0
-463 -466 -490 -599 0
464 467 491 600 0
-464 -467 -491 -600 0
465 468 492 601 0
-465 -468 -492 -601 0
466 469 493 602 0
-466 -469 -493 -602 0
467 470 494 603 0
-467 -470 -494 -603 0
471 474 495 604 0
-471 -474 -495 -604 0
472 475 496 605 0
-472 -475 -496 -605 0
473 476 497 606 0
-473 -476 -497 -606 0
474 477 498 607 0
-474 -477 -498 -607 0
475 478 499 608 0
-475 -478 -499 -608 0
476 479 500 609 0
-476 -479 -500 -609 0
480 483 501 610 0
-480 -483 -501 -610 0
481 484 502 611 0
-481 -484 -502 -611 0
482 485 503 612 0
-482 -485 -503 -612 0
483 486 504 613 0
-483 -486 -504 -613 0
484 487 505 614 0
-484 -487 -505 -614 0
488 491 506 615 0
-488 -491 -506 -615 0
489 492 507 616 0
-489 -492 -507 -616 0
490 493 508 617 0
-490 -493 -508 -617 0
491 494 509 618 0
-491 -494 -509 -618 0
495 498 510 619 0
-495 -498 -510 -619 0
496 499 511 620 0
-496 -499 -511 -620 0
497 500 512 621 0
-497 -500 -512 -621 0
501 504 513 622 0
-501 -504 -513 -622 0
502 505 514 623 0
-502 -505 -514 -623 0
506 509 515 624 0
-506 -509 -515 -624 0
516 519 540 625 0
-516 -519 -540 -625 0
517 520 541 626 0
-517 -520 -541 -626 0
518 521 542 627 0
-518 -521 -542 -627 0
519 522 543 628 0
-519 -522 -543 -628 0
520 523 544 629 0
-520 -523 -544 -629 0
521 524 545 630 0
-521 -524 -545 -630 0
525 528 546 631 0
-525 -528 -546 -631 0
526 529 547 632 0
-526 -529 -547 -632 0
527 530 548 633 0
-527 -530 -548 -633 0
528 531 549 634 0
-528 -531 -549 -634 0
529 532 550 635 0
-529 -532 -550 -635 0
533 536 551 636 0
-533 -536 -551 -636 0
534 537 552 637 0
-534 -537 -552 -637 0
535 538 553 638 0
-535 -538 -553 -638 0
536 539 554 639 0
-536 -539 -554 -639 0
540 543 555 640 0
-540 -543 -555 -640 0
541 544 556 641 0
-541 -544 -556 -641 0
542 545 557 642 0
-542 -545 -557 -642 0
546 549 558 643 0
-546 -549 -558 -643 0
547 550 559 644 0
-547 -550 -559 -644 0
551 554 560 645 0
-551 -554 -560 -645 0
561 564 582 646 0
-561 -564 -582 -646 0
562 565 583 647 0
-562 -565 -583 -647 0
563 566 584 648 0
-563 -566 -584 -648 0
564 567 585 649 0
-564 -567 -585 -649 0
565 568 586 650 0
-565 -568 -586 -650 0
569 572 587 651 0
-569 -572 -587 -651 0
570 573 588 652 0
-570 -573 -588 -652 0
571 574 589 653 0
-571 -574 -589 -653 0
572 575 590 654 0
-572 -575 -590 -654 0
576 579 591 655 0
-576 -579 -591 -655 0
577 580 592 656 0
-577 -580 -592 -656 0
578 581 593 657 0
-578 -581 -593 -657 0
582 585 594 658 0
-582 -585 -594 -658 0
583 586 595 659 0
-583 -586 -595 -659 0
587 590 596 660 0
-587 -590 -596 -660 0
597 600 615 661 0
-597 -600 -615 -661 0
598 601 616 662 0
-598 -601 -616 -662 0
599 602 617 663 0
-599 -602 -617 -663 0
600 603 618 664 0
-600 -603 -618 -664 0
604 607 619 665 0
-604 -607 -619 -665 0
605 608 620 666 0
-605 -608 -620 -666 0
606 609 621 667 0
-606 -609 -621 -667 0
610 613 622 668 0
-610 -613 -622 -668 0
611 614 623 669 0
-611 -614 -623 -669 0
615 618 624 670 0
-615 -618 -624 -670 0
625 628 640 671 0
-625 -628 -640 -671 0
626 629 641 672 0
-626 -629 -641 -672 0
627 630 642 673 0
-627 -630 -642 -673 0
631 634 643 674 0
-631 -634 -643 -674 0
632 635 644 675 0
-632 -635 -644 -675 0
636 639 645 676 0
-636 -639 -645 -676 0
646 649 658 677 0
-646 -649 -658 -677 0
647 650 659 678 0
-647 -650 -659 -678 0
651 654 660 679 0
-651 -654 -660 -679 0
661 664 670 680 0
-661 -664 -670 -680 0
4 13 95 395 0
-4 -13 -95 -395 0
3 16 97 396 0
-3 -16 -97 -396 0
7 19 99 397 0
-7 -19 -99 -397 0
10 22 101 398 0
-10 -22 -101 -398 0
13 25 103 399 0
-13 -25 -103 -399 0
16 28 105 400 0
-16 -28 -105 -400 0
19 31 107 401 0
-19 -31 -107 -401 0
22 34 109 402 0
-22 -34 -109 -402 0
25 37 111 403 0
-25 -37 -111 -403 0
28 40 113 404 0
-28 -40 -113 -404 0
31 43 115 405 0
-31 -43 -115 -405 0
2 15 117 406 0
-2 -15 -117 -406 0
6 18 119 407 0
-6 -18 -119 -407 0
9 21 121 408 0
-9 -21 -121 -408 0
12 24 123 409 0
-12 -24 -123 -409 0
15 27 125 410 0
-15 -27 -125 -410 0
18 30 127 411 0
-18 -30 -127 -411 0
21 33 129 412 0
-21 -33 -129 -412 0
24 36 131 413 0
-24 -36 -131 -413 0
27 39 133 414 0
-27 -39 -133 -414 0
30 42 135 415 0
-30 -42 -135 -415 0
45 53 137 416 0
-45 -53 -137 -416 0
47 55 139 417 0
-47 -55 -139 -417 0
49 57 141 418 0
-49 -57 -141 -418 0
51 59 143 419 0
-51 -59 -143 -419 0
53 61 145 420 0
-53 -61 -145 -420 0
55 63 147 421 0
-55 -63 -147 -421 0
57 65 149 422 0
-57 -65 -149 -422 0
59 67 151 423 0
-59 -67 -151 -423 0
61 69 153 424 0
-61 -69 -153 -424 0
71 79 155 425 0
-71 -79 -155 -425 0
73 81 157 426 0
-73 -81 -157 -426 0
75 83 159 427 0
-75 -83 -159 -427 0
77 85 161 428 0
-77 -85 -161 -428 0
79 87 163 429 0
-79 -87 -163 -429 0
81 89 165 430 0
-81 -89 -165 -430 0
83 91 167 431 0
-83 -91 -167 -431 0
85 93 169 432 0
-85 -93 -169 -432 0
95 103 171 433 0
-95 -103 -171 -433 0
97 105 173 434 0
-97 -105 -173 -434 0
99 107 175 435 0
-99 -107 -175 -435 0
101 109 177 436 0
-101 -109 -177 -436 0
103 111 179 437 0
-103 -111 -179 -437 0
105 113 181 438 0
-105 -113 -181 -438 0
107 115 183 439 0
-107 -115 -183 -439 0
117 125 185 440 0
-117 -125 -185 -440 0
119 127 187 441 0
-119 -127 -187 -441 0
121 129 189 442 0
-121 -129 -189 -442 0
123 131 191 443 0
-123 -131 -191 -443 0
125 133 193 444 0
-125 -133 -193 -444 0
127 135 195 445 0
-127 -135 -195 -445 0
137 145 197 446 0
-137 -145 -197 -446 0
139 147 199 447 0
-139 -147 -199 -447 0
141 149 201 448 0
-141 -149 -201 -448 0
143 151 203 449 0
-143 -151 -203 -449 0
145 153 205 450 0
-145 -153 -205 -450 0
155 163 207 451 0
-155 -163 -207 -451 0
157 165 209 452 0
-157 -165 -209 -452 0
159 167 211 453 0
-159 -167 -211 -453 0
161 169 213 454 0
-161 -169 -213 -454 0
171 179 215 455 0
-171 -179 -215 -455 0
173 181 217 456 0
-173 -181 -217 -456 0
175 183 219 457 0
-175 -183 -219 -457 0
185 193 221 458 0
-185 -193 -221 -458 0
187 195 223 459 0
-187 -195 -223 -459 0
197 205 225 460 0
-197 -205 -225 -460 0
1 14 116 461 0
-1 -14 -116 -461 0
5 17 118 462 0
-5 -17 -118 -462 0
8 20 120 463 0
-8 -20 -120 -463 0
11 23 122 464 0
-11 -23 -122 -464 0
14 26 124 465 0
-14 -26 -124 -465 0
17 29 126 466 0
-17 -29 -126 -466 0
20 32 128 467 0
-20 -32 -128 -467 0
23 35 130 468 0
-23 -35 -130 -468 0
26 38 132 469 0
-26 -38 -132 -469 0
29 41 134 470 0
-29 -41 -134 -470 0
44 52 136 471 0
-44 -52 -136 -471 0
46 54 138 472 0
-46 -54 -138 -472 0
48 56 140 473 0
-48 -56 -140 -473 0
50 58 142 474 0
-50 -58 -142 -474 0
52 60 144 475 0
-52 -60 -144 -475 0
54 62 146 476 0
-54 -62 -146 -476 0
56 64 148 477 0
-56 -64 -148 -477 0
58 66 150 478 0
-58 -66 -150 -478 0
60 68 152 479 0
-60 -68 -152 -479 0
70 78 154 480 0
-70 -78 -154 -480 0
72 80 156 481 0
-72 -80 -156 -481 0
74 82 158 482 0
-74 -82 -158 -482 0
76 84 160 483 0
-76 -84 -160 -483 0
78 86 162 484 0
-78 -86 -162 -484 0
80 88 164 485 0
-80 -88 -164 -485 0
82 90 166 486 0
-82 -90 -166 -486 0
84 92 168 487 0
-84 -92 -168 -487 0
94 102 170 488 0
-94 -102 -170 -488 0
96 104 172 489 0
-96 -104 -172 -489 0
98 106 174 490 0
-98 -106 -174 -490 0
100 108 176 491 0
-100 -108 -176 -491 0
102 110 178 492 0
-102 -110 -178 -492 0
104 112 180 493 0
-104 -112 -180 -493 0
106 114 182 494 0
-106 -114 -182 -494 0
116 124 184 495 0
-116 -124 -184 -495 0
118 126 186 496 0
-118 -126 -186 -496 0
120 128 188 497 0
-120 -128 -188 -497 0
122 130 190 498 0
-122 -130 -190 -498 0
124 132 192 499 0
-124 -132 -192 -499 0
126 134 194 500 0
-126 -134 -194 -500 0
136 144 196 501 0
-136 -144 -196 -501 0
138 146 198 502 0
-138 -146 -198 -502 0
140 148 200 503 0
-140 -148 -200 -503 0
142 150 202 504 0
-142 -150 -202 -504 0
144 152 204 505 0
-144 -152 -204 -505 0
154 162 206 506 0
-154 -162 -206 -506 0
156 164 208 507 0
-156 -164 -208 -507 0
158 166 210 508 0
-158 -166 -210 -508 0
160 168 212 509 0
-160 -168 -212 -509 0
170 178 214 510 0
-170 -178 -214 -510 0
172 180 216 511 0
-172 -180 -216 -511 0
174 182 218 512 0
-174 -182 -218 -512 0
184 192 220 513 0
-184 -192 -220 -513 0
186 194 222 514 0
-186 -194 -222 -514 0
196 204 224 515 0
-196 -204 -224 -515 0
226 230 272 516 0
-226 -230 -272 -516 0
227 231 273 517 0
-227 -231 -273 -517 0
228 232 274 518 0
-228 -232 -274 -518 0
229 233 275 519 0
-229 -233 -275 -519 0
230 234 276 520 0
-230 -234 -276 -520 0
231 235 277 521 0
-231 -235 -277 -521 0
232 236 278 522 0
-232 -236 -278 -522 0
233 237 279 523 0
-233 -237 -279 -523 0
234 238 280 524 0
-234 -238 -280 -524 0
239 243 281 525 0
-239 -243 -281 -525 0
240 244 282 526 0
-240 -244 -282 -526 0
241 245 283 527 0
-241 -245 -283 -527 0
242 246 284 528 0
-242 -246 -284 -528 0
243 247 285 529 0
-243 -247 -285 -529 0
244 248 286 530 0
-244 -248 -286 -530 0
245 249 287 531 0
-245 -249 -287 -531 0
246 250 288 532 0
-246 -250 -288 -532 0
251 255 289 533 0
-251 -255 -289 -533 0
252 256 290 534 0
-252 -256 -290 -534 0
253 257 291 535 0
-253 -257 -291 -535 0
254 258 292 536 0
-254 -258 -292 -536 0
255 259 293 537 0
-255 -259 -293 -537 0
256 260 294 538 0
-256 -260 -294 -538 0
257 261 295 539 0
-257 -261 -295 -539 0
262 266 296 540 0
-262 -266 -296 -540 0
263 267 297 541 0
-263 -267 -297 -541 0
264 268 298 542 0
-264 -268 -298 -542 0
265 269 299 543 0
-265 -269 -299 -543 0
266 270 300 544 0
-266 -270 -300 -544 0
267 271 301 545 0
-267 -271 -301 -545 0
272 276 302 546 0
-272 -276 -302 -546 0
273 277 303 547 0
-273 -277 -303 -547 0
274 278 304 548 0
-274 -278 -304 -548 0
275 279 305 549 0
-275 -279 -305 -549 0
276 280 306 550 0
-276 -280 -306 -550 0
281 285 307 551 0
-281 -285 -307 -551 0
282 286 308 552 0
-282 -286 -308 -552 0
283 287 309 553 0
-283 -287 -309 -553 0
284 288 310 554 0
-284 -288 -310 -554 0
289 293 311 555 0
-289 -293 -311 -555 0
290 294 312 556 0
-290 -294 -312 -556 0
291 295 313 557 0
-291 -295 -313 -557 0
296 300 314 558 0
-296 -300 -314 -558 0
297 301 315 559 0
-297 -301 -315 -559 0
302 306 316 560 0
-302 -306 -316 -560 0
317 321 359 561 0
-317 -321 -359 -561 0
318 322 360 562 0
-318 -322 -360 -562 0
319 323 361 563 0
-319 -323 -361 -563 0
320 324 362 564 0
-320 -324 -362 -564 0
321 325 363 565 0
-321 -325 -363 -565 0
322 326 364 566 0
-322 -326 -364 -566 0
323 327 365 567 0
-323 -327 -365 -567 0
324 328 366 568 0
-324 -328 -366 -568 0
329 333 367 569 0
-329 -333 -367 -569 0
330 334 368 570 0
-330 -334 -368 -570 0
331 335 369 571 0
-331 -335 -369 -571 0
332 336 370 572 0
-332 -336 -370 -572 0
333 337 371 573 0
-333 -337 -371 -573 0
334 338 372 574 0
-334 -338 -372 -574 0
335 339 373 575 0
-335 -339 -373 -575 0
340 344 374 576 0
-340 -344 -374 -576 0
341 345 375 577 0
-341 -345 -375 -577 0
342 346 376 578 0
-342 -346 -376 -578 0
343 347 377 579 0
-343 -347 -377 -579 0
344 348 378 580 0
-344 -348 -378 -580 0
345 349 379 581 0
-345 -349 -379 -581 0
350 354 380 582 0
-350 -354 -380 -582 0
351 355 381 583 0
-351 -355 -381 -583 0
352 356 382 584 0
-352 -356 -382 -584 0
353 357 383 585 0
-353 -357 -383 -585 0
354 358 384 586 0
-354 -358 -384 -586 0
359 363 385 587 0
-359 -363 -385 -587 0
360 364 386 588 0
-360 -364 -386 -588 0
361 365 387 589 0
-361 -365 -387 -589 0
362 366 388 590 0
-362 -366 -388 -590 0
367 371 389 591 0
-367 -371 -389 -591 0
368 372 390 592 0
-368 -372 -390 -592 0
369 373 391 593 0
-369 -373 -391 -593 0
374 378 392 594 0
-374 -378 -392 -594 0
375 379 393 595 0
-375 -379 -393 -595 0
380 384 394 596 0
-380 -384 -394 -596 0
395 399 433 597 0
-395 -399 -433 -597 0
396 400 434 598 0
-396 -400 -434 -598 0
397 401 435 599 0
-397 -401 -435 -599 0
398 402 436 600 0
-398 -402 -436 -600 0
399 403 437 601 0
-399 -403 -437 -601 0
400 404 438 602 0
-400 -404 -438 -602 0
401 405 439 603 0
-401 -405 -439 -603 0
406 410 440 604 0
-406 -410 -440 -604 0
407 411 441 605 0
-407 -411 -441 -605 0
408 412 442 606 0
-408 -412 -442 -606 0
409 413 443 607 0
-409 -413 -443 -607 0
410 414 444 608 0
-410 -414 -444 -608 0
411 415 445 609 0
-411 -415 -445 -609 0
416 420 446 610 0
-416 -420 -446 -610 0
417 421 447 611 0
-417 -421 -447 -611 0
418 422 448 612 0
-418 -422 -448 -612 0
419 423 449 613 0
-419 -423 -449 -613 0
420 424 450 614 0
-420 -424 -450 -614 0
425 429 451 615 0
-425 -429 -451 -615 0
426 430 452 616 0
-426 -430 -452 -616 0
427 431 453 617 0
-427 -431 -453 -617 0
428 432 454 618 0
-428 -432 -454 -618 0
433 437 455 619 0
-433 -437 -455 -619 0
434 438 456 620 0
-434 -438 -456 -620 0
435 439 457 621 0
-435 -439 -457 -621 0
440 444 458 622 0
-440 -444 -458 -622 0
441 445 459 623 0
-441 -445 -459 -623 0
446 450 460 624 0
-446 -450 -460 -624 0
461 465 495 625 0
-461 -465 -495 -625 0
462 466 496 626 0
-462 -466 -496 -626 0
463 467 497 627 0
-463 -467 -497 -627 0
464 468 498 628 0
-464 -468 -498 -628 0
465 469 499 629 0
-465 -469 -499 -629 0
466 470 500 630 0
-466 -470 -500 -630 0
471 475 501 631 0
-471 -475 -501 -631 0
472 476 502 632 0
-472 -476 -502 -632 0
473 477 503 633 0
-473 -477 -503 -633 0
474 478 504 634 0
-474 -478 -504 -634 0
475 479 505 635 0
-475 -479 -505 -635 0
480 484 506 636 0
-480 -484 -506 -636 0
481 485 507 637 0
-481 -485 -507 -637 0
482 486 508 638 0
-482 -486 -508 -638 0
483 487 509 639 0
-483 -487 -509 -639 0
488 492 510 640 0
-488 -492 -510 -640 0
489 493 511 641 0
-489 -493 -511 -641 0
490 494 512 642 0
-490 -494 -512 -642 0
495 499 513 643 0
-495 -499 -513 -643 0
496 500 514 644 0
-496 -500 -514 -644 0
501 505 515 645 0
-501 -505 -515 -645 0
516 520 546 646 0
-516 -520 -546 -646 0
517 521 547 647 0
-517 -521 -547 -647 0
518 522 548 648 0
-518 -522 -548 -648 0
519 523 549 649 0
-519 -523 -549 -649 0
520 524 550 650 0
-520 -524 -550 -650 0
525 529 551 651 0
-525 -529 -551 -651 0
526 530 552 652 0
-526 -530 -552 -652 0
527 531 553 653 0
-527 -531 -553 -653 0
528 532 554 654 0
-528 -532 -554 -654 0
533 537 555 655 0
-533 -537 -555 -655 0
534 538 556 656 0
-534 -538 -556 -656 0
535 539 557 657 0
-535 -539 -557 -657 0
540 544 558 658 0
-540 -544 -558 -658 0
541 545 559 659 0
-541 -545 -559 -659 0
546 550 560 660 0
-546 -550 -560 -660 0
561 565 587 661 0
-561 -565 -587 -661 0
562 566 588 662 0
-562 -566 -588 -662 0
563 567 589 663 0
-563 -567 -589 -663 0
564 568 590 664 0
-564 -568 -590 -664 0
569 573 591 665 0
-569 -573 -591 -665 0
570 574 592 666 0
-570 -574 -592 -666 0
571 575 593 667 0
-571 -575 -593 -667 0
576 580 594 668 0
-576 -580 -594 -668 0
577 581 595 669 0
-577 -581 -595 -669 0
582 586 596 670 0
-582 -586 -596 -670 0
597 601 619 671 0
-597 -601 -619 -671 0
598 602 620 672 0
-598 -602 -620 -672 0
599 603 621 673 0
-599 -603 -621 -673 0
604 608 622 674 0
-604 -608 -622 -674 0
605 609 623 675 0
-605 -609 -623 -675 0
610 614 624 676 0
-610 -614 -624 -676 0
625 629 643 677 0
-625 -629 -643 -677 0
626 630 644 678 0
-626 -630 -644 -678 0
631 635 645 679 0
-631 -635 -645 -679 0
646 650 660 680 0
-646 -650 -660 -680 0
4 16 117 461 0
-4 -16 -117 -461 0
3 19 119 462 0
-3 -19 -119 -462 0
7 22 121 463 0
-7 -22 -121 -463 0
10 25 123 464 0
-10 -25 -123 -464 0
13 28 125 465 0
-13 -28 -125 -465 0
16 31 127 466 0
-16 -31 -127 -466 0
19 34 129 467 0
-19 -34 -129 -467 0
22 37 131 468 0
-22 -37 -131 -468 0
25 40 133 469 0
-25 -40 -133 -469 0
28 43 135 470 0
-28 -43 -135 -470 0
2 18 137 471 0
-2 -18 -137 -471 0
6 21 139 472 0
-6 -21 -139 -472 0
9 24 141 473 0
-9 -24 -141 -473 0
12 27 143 474 0
-12 -27 -143 -474 0
15 30 145 475 0
-15 -30 -145 -475 0
18 33 147 476 0
-18 -33 -147 -476 0
21 36 149 477 0
-21 -36 -149 -477 0
24 39 151 478 0
-24 -39 -151 -478 0
27 42 153 479 0
-27 -42 -153 -479 0
45 55 155 480 0
-45 -55 -155 -480 0
47 57 157 481 0
-47 -57 -157 -481 0
49 59 159 482 0
-49 -59 -159 -482 0
51 61 161 483 0
-51 -61 -161 -483 0
53 63 163 484 0
-53 -63 -163 -484 0
55 65 165 485 0
-55 -65 -165 -485 0
57 67 167 486 0
-57 -67 -167 -486 0
59 69 169 487 0
-59 -69 -169 -487 0
71 81 171 488 0
-71 -81 -171 -488 0
73 83 173 489 0
-73 -83 -173 -489 0
75 85 175 490 0
-75 -85 -175 -490 0
77 87 177 491 0
-77 -87 -177 -491 0
79 89 179 492 0
-79 -89 -179 -492 0
81 91 181 493 0
-81 -91 -181 -493 0
83 93 183 494 0
-83 -93 -183 -494 0
95 105 185 495 0
-95 -105 -185 -495 0
97 107 187 496 0
-97 -107 -187 -496 0
99 109 189 497 0
-99 -109 -189 -497 0
101 111 191 498 0
-101 -111 -191 -498 0
103 113 193 499 0
-103 -113 -193 -499 0
105 115 195 500 0
-105 -115 -195 -500 0
117 127 197 501 0
-117 -127 -197 -501 0
119 129 199 502 0
-119 -129 -199 -502 0
121 131 201 503 0
-121 -131 -201 -503 0
123 133 203 504 0
-123 -133 -203 -504 0
125 135 205 505 0
-125 -135 -205 -505 0
137 147 207 506 0
-137 -147 -207 -506 0
139 149 209 507 0
-139 -149 -209 -507 0
141 151 211 508 0
-141 -151 -211 -508 0
143 153 213 509 0
-143 -153 -213 -509 0
155 165 215 510 0
-155 -165 -215 -510 0
157 167 217 511 0
-157 -167 -217 -511 0
159 169 219 512 0
-159 -169 -219 -512 0
171 181 221 513 0
-171 -181 -221 -513 0
173 183 223 514 0
-173 -183 -223 -514 0
185 195 225 515 0
-185 -195 -225 -515 0
1 17 136 516 0
-1 -17 -136 -516 0
5 20 138 517 0
-5 -20 -138 -517 0
8 23 140 518 0
-8 -23 -140 -518 0
11 26 142 519 0
-11 -26 -142 -519 0
14 29 144 520 0
-14 -29 -144 -520 0
17 32 146 521 0
-17 -32 -146 -521 0
20 35 148 522 0
-20 -35 -148 -522 0
23 38 150 523 0
-23 -38 -150 -523 0
26 41 152 524 0
-26 -41 -152 -524 0
44 54 154 525 0
-44 -54 -154 -525 0
46 56 156 526 0
-46 -56 -156 -526 0
48 58 158 527 0
-48 -58 -158 -527 0
50 60 160 528 0
-50 -60 -160 -528 0
52 62 162 529 0
-52 -62 -162 -529 0
54 64 164 530 0
-54 -64 -164 -530 0
56 66 166 531 0
-56 -66 -166 -531 0
58 68 168 532 0
-58 -68 -168 -532 0
70 80 170 533 0
-70 -80 -170 -533 0
72 82 172 534 0
-72 -82 -172 -534 0
74 84 174 535 0
-74 -84 -174 -535 0
76 86 176 536 0
-76 -86 -176 -536 0
78 88 178 537 0
-78 -88 -178 -537 0
80 90 180 538 0
-80 -90 -180 -538 0
82 92 182 539 0
-82 -92 -182 -539 0
94 104 184 540 0
-94 -104 -184 -540 0
96 106 186 541 0
-96 -106 -186 -541 0
98 108 188 542 0
-98 -108 -188 -542 0
100 110 190 543 0
-100 -110 -190 -543 0
102 112 192 544 0
-102 -112 -192 -544 0
104 114 194 545 0
-104 -114 -194 -545 0
116 126 196 546 0
-116 -126 -196 -546 0
118 128 198 547 0
-118 -128 -198 -547 0
120 130 200 548 0
-120 -130 -200 -548 0
122 132 202 549 0
-122 -132 -202 -549 0
124 134 204 550 0
-124 -134 -204 -550 0
136 146 206 551 0
-136 -146 -206 -551 0
138 148 208 552 0
-138 -148 -208 -552 0
140 150 210 553 0
-140 -150 -210 -553 0
142 152 212 554 0
-142 -152 -212 -554 0
154 164 214 555 0
-154 -164 -214 -555 0
156 166 216 556 0
-156 -166 -216 -556 0
158 168 218 557 0
-158 -168 -218 -557 0
170 180 220 558 0
-170 -180 -220 -558 0
172 182 222 559 0
-172 -182 -222 -559 0
184 194 224 560 0
-184 -194 -224 -560 0
226 231 281 561 0
-226 -231 -281 -561 0
227 232 282 562 0
-227 -232 -282 -562 0
228 233 283 563 0
-228 -233 -283 -563 0
229 234 284 564 0
-229 -234 -284 -564 0
230 235 285 565 0
-230 -235 -285 -565 0
231 236 286 566 0
-231 -236 -286 -566 0
232 237 287 567 0
-232 -237 -287 -567 0
233 238 288 568 0
-233 -238 -288 -568 0
239 244 289 569 0
-239 -244 -289 -569 0
240 245 290 570 0
-240 -245 -290 -570 0
241 246 291 571 0
-241 -246 -291 -571 0
242 247 292 572 0
-242 -247 -292 -572 0
243 248 293 573 0
-243 -248 -293 -573 0
244 249 294 574 0
-244 -249 -294 -574 0
245 250 295 575 0
-245 -250 -295 -575 0
251 256 296 576 0
-251 -256 -296 -576 0
252 257 297 577 0
-252 -257 -297 -577 0
253 258 298 578 0
-253 -258 -298 -578 0
254 259 299 579 0
-254 -259 -299 -579 0
255 260 300 580 0
-255 -260 -300 -580 0
256 261 301 581 0
-256 -261 -301 -581 0
262 267 302 582 0
-262 -267 -302 -582 0
263 268 303 583 0
-263 -268 -303 -583 0
264 269 304 584 0
-264 -269 -304 -584 0
265 270 305 585 0
-265 -270 -305 -585 0
266 271 306 586 0
-266 -271 -306 -586 0
272 277 307 587 0
-272 -277 -307 -587 0
273 278 308 588 0
-273 -278 -308 -588 0
274 279 309 589 0
-274 -279 -309 -589 0
275 280 310 590 0
-275 -280 -310 -590 0
281 286 311 591 0
-281 -286 -311 -591 0
282 287 312 592 0
-282 -287 -312 -592 0
283 288 313 593 0
-283 -288 -313 -593 0
289 294 314 594 0
-289 -294 -314 -594 0
290 295 315 595 0
-290 -295 -315 -595 0
296 301 316 596 0
-296 -301 -316 -596 0
317 322 367 597 0
-317 -322 -367 -597 0
318 323 368 598 0
-318 -323 -368 -598 0
319 324 369 599 0
-319 -324 -369 -599 0
320 325 370 600 0
-320 -325 -370 -600 0
321 326 371 601 0
-321 -326 -371 -601 0
322 327 372 602 0
-322 -327 -372 -602 0
323 328 373 603 0
-323 -328 -373 -603 0
329 334 374 604 0
-329 -334 -374 -604 0
330 335 375 605 0
-330 -335 -375 -605 0
331 336 376 606 0
-331 -336 -376 -606 0
332 337 377 607 0
-332 -337 -377 -607 0
333 338 378 608 0
-333 -338 -378 -608 0
334 339 379 609 0
-334 -339 -379 -609 0
340 345 380 610 0
-340 -345 -380 -610 0
341 346 381 611 0
-341 -346 -381 -611 0
342 347 382 612 0
-342 -347 -382 -612 0
343 348 383 613 0
-343 -348 -383 -613 0
344 349 384 614 0
-344 -349 -384 -614 0
350 355 385 615 0
-350 -355 -385 -615 0
351 356 386 616 0
-351 -356 -386 -616 0
352 357 387 617 0
-352 -357 -387 -617 0
353 358 388 618 0
-353 -358 -388 -618 0
359 364 389 619 0
-359 -364 -389 -619 0
360 365 390 620 0
-360 -365 -390 -620 0
361 366 391 621 0
-361 -366 -391 -621 0
367 372 392 622 0
-367 -372 -392 -622 0
368 373 393 623 0
-368 -373 -393 -623 0
374 379 394 624 0
-374 -379 -394 -624 0
395 400 440 625 0
-395 -400 -440 -625 0
396 401 441 626 0
-396 -401 -441 -626 0
397 402 442 627 0
-397 -402 -442 -627 0
398 403 443 628 0
-398 -403 -443 -628 0
399 404 444 629 0
-399 -404 -444 -629 0
400 405 445 630 0
-400 -405 -445 -630 0
406 411 446 631 0
-406 -411 -446 -631 0
407 412 447 632 0
-407 -412 -447 -632 0
408 413 448 633 0
-408 -413 -448 -633 0
409 414 449 634 0
-409 -414 -449 -634 0
410 415 450 635 0
-410 -415 -450 -635 0
416 421 451 636 0
-416 -421 -451 -636 0
417 422 452 637 0
-417 -422 -452 -637 0
418 423 453 638 0
-418 -423 -453 -638 0
419 424 454 639 0
-419 -424 -454 -639 0
425 430 455 640 0
-425 -430 -455 -640 0
426 431 456 641 0
-426 -431 -456 -641 0
427 432 457 642 0
-427 -432 -457 -642 0
433 438 458 643 0
-433 -438 -458 -643 0
434 439 459 644 0
-434 -439 -459 -644 0
440 445 460 645 0
-440 -445 -460 -645 0
461 466 501 646 0
-461 -466 -501 -646 0
462 467 502 647 0
-462 -467 -502 -647 0
463 468 503 648 0
-463 -468 -503 -648 0
464 469 504 649 0
-464 -469 -504 -649 0
465 470 505 650 0
-465 -470 -505 -650 0
471 476 506 651 0
-471 -476 -506 -651 0
472 477 507 652 0
-472 -477 -507 -652 0
473 478 508 653 0
-473 -478 -508 -653 0
474 479 509 654 0
-474 -479 -509 -654 0
480 485 510 655 0
-480 -485 -510 -655 0
481 486 511 656 0
-481 -486 -511 -656 0
482 487 512 657 0
-482 -487 -512 -657 0
488 493 513 658 0
-488 -493 -513 -658 0
489 494 514 659 0
-489 -494 -514 -659 0
495 500 515 660 0
-495 -500 -515 -660 0
516 521 551 661 0
-516 -521 -551 -661 0
517 522 552 662 0
-517 -522 -552 -662 0
518 523 553 663 0
-518 -523 -553 -663 0
519 524 554 664 0
-519 -524 -554 -664 0
525 530 555 665 0
-525 -530 -555 -665 0
526 531 556 666 0
-526 -531 -556 -666 0
527 532 557 667 0
-527 -532 -557 -667 0
533 538 558 668 0
-533 -538 -558 -668 0
534 539 559 669 0
-534 -539 -559 -669 0
540 545 560 670 0
-540 -545 -560 -670 0
561 566 591 671 0
-561 -566 -591 -671 0
562 567 592 672 0
-562 -567 -592 -672 0
563 568 593 673 0
-563 -568 -593 -673 0
569 574 594 674 0
-569 -574 -594 -674 0
570 575 595 675 0
-570 -575 -595 -675 0
576 581 596 676 0
-576 -581 -596 -676 0
597 602 622 677 0
-597 -602 -622 -677 0
598 603 623 678 0
-598 -603 -623 -678 0
604 609 624 679 0
-604 -609 -624 -679 0
625 630 645 680 0
-625 -630 -645 -680 0
4 19 137 516 0
-4 -19 -137 -516 0
3 22 139 517 0
-3 -22 -139 -517 0
7 25 141 518 0
-7 -25 -141 -518 0
10 28 143 519 0
-10 -28 -143 -519 0
13 31 145 520 0
-13 -31 -145 -520 0
16 34 147 521 0
-16 -34 -147 -521 0
19 37 149 522 0
-19 -37 -149 -522 0
22 40 151 523 0
-22 -40 -151 -523 0
25 43 153 524 0
-25 -43 -153 -524 0
2 21 155 525 0
-2 -21 -155 -525 0
6 24 157 526 0
-6 -24 -157 -526 0
9 27 159 527 0
-9 -27 -159 -527 0
12 30 161 528 0
-12 -30 -161 -528 0
15 33 163 529 0
-15 -33 -163 -529 0
18 36 165 530 0
-18 -36 -165 -530 0
21 39 167 531 0
-21 -39 -167 -531 0
24 42 169 532 0
-24 -42 -169 -532 0
45 57 171 533 0
-45 -57 -171 -533 0
47 59 173 534 0
-47 -59 -173 -534 0
49 61 175 535 0
-49 -61 -175 -535 0
51 63 177 536 0
-51 -63 -177 -536 0
53 65 179 537 0
-53 -65 -179 -537 0
55 67 181 538 0
-55 -67 -181 -538 0
57 69 183 539 0
-57 -69 -183 -539 0
71 83 185 540 0
-71 -83 -185 -540 0
73 85 187 541 0
-73 -85 -187 -541 0
75 87 189 542 0
-75 -87 -189 -542 0
77 89 191 543 0
-77 -89 -191 -543 0
79 91 193 544 0
-79 -91 -193 -544 0
81 93 195 545 0
-81 -93 -195 -545 0
95 107 197 546 0
-95 -107 -197 -546 0
97 109 199 547 0
-97 -109 -199 -547 0
99 111 201 548 0
-99 -111 -201 -548 0
101 113 203 549 0
-101 -113 -203 -549 0
103 115 205 550 0
-103 -115 -205 -550 0
117 129 207 551 0
-117 -129 -207 -551 0
119 131 209 552 0
-119 -131 -209 -552 0
121 133 211 553 0
-121 -133 -211 -553 0
123 135 213 554 0
-123 -135 -213 -554 0
137 149 215 555 0
-137 -149 -215 -555 0
139 151 217 556 0
-139 -151 -217 -556 0
141 153 219 557 0
-141 -153 -219 -557 0
155 167 221 558 0
-155 -167 -221 -558 0
157 169 223 559 0
-157 -169 -223 -559 0
171 183 225 560 0
-171 -183 -225 -560 0
1 20 154 561 0
-1 -20 -154 -561 0
5 23 156 562 0
-5 -23 -156 -562 0
8 26 158 563 0
-8 -26 -158 -563 0
11 29 160 564 0
-11 -29 -160 -564 0
14 32 162 565 0
-14 -32 -162 -565 0
17 35 164 566 0
-17 -35 -164 -566 0
20 38 166 567 0
-20 -38 -166 -567 0
23 41 168 568 0
-23 -41 -168 -568 0
44 56 170 569 0
-44 -56 -170 -569 0
46 58 172 570 0
-46 -58 -172 -570 0
48 60 174 571 0
-48 -60 -174 -571 0
50 62 176 572 0
-50 -62 -176 -572 0
52 64 178 573 0
-52 -64 -178 -573 0
54 66 180 574 0
-54 -66 -180 -574 0
56 68 182 575 0
-56 -68 -182 -575 0
70 82 184 576 0
-70 -82 -184 -576 0
72 84 186 577 0
-72 -84 -186 -577 0
74 86 188 578 0
-74 -86 -188 -578 0
76 88 190 579 0
-76 -88 -190 -579 0
78 90 192 580 0
-78 -90 -192 -580 0
80 92 194 581 0
-80 -92 -194 -581 0
94 106 196 582 0
-94 -106 -196 -582 0
96 108 198 583 0
-96 -108 -198 -583 0
98 110 200 584 0
-98 -110 -200 -584 0
100 112 202 585 0
-100 -112 -202 -585 0
102 114 204 586 0
-102 -114 -204 -586 0
116 128 206 587 0
-116 -128 -206 -587 0
118 130 208 588 0
-118 -130 -208 -588 0
120 132 210 589 0
-120 -132 -210 -589 0
122 134 212 590 0
-122 -134 -212 -590 0
136 148 214 591 0
-136 -148 -214 -591 0
138 150 216 592 0
-138 -150 -216 -592 0
140 152 218 593 0
-140 -152 -218 -593 0
154 166 220 594 0
-154 -166 -220 -594 0
156 168 222 595 0
-156 -168 -222 -595 0
170 182 224 596 0
-170 -182 -224 -596 0
226 232 289 597 0
-226 -232 -289 -597 0
227 233 290 598 0
-227 -233 -290 -598 0
228 234 291 599 0
-228 -234 -291 -599 0
229 235 292 600 0
-229 -235 -292 -600 0
230 236 293 601 0
-230 -236 -293 -601 0
231 237 294 602 0
-231 -237 -294 -602 0
232 238 295 603 0
-232 -238 -295 -603 0
239 245 296 604 0
-239 -245 -296 -604 0
240 246 297 605 0
-240 -246 -297 -605 0
241 247 298 606 0
-241 -247 -298 -606 0
242 248 299 607 0
-242 -248 -299 -607 0
243 249 300 608 0
-243 -249 -300 -608 0
244 250 301 609 0
-244 -250 -301 -609 0
251 257 302 610 0
-251 -257 -302 -610 0
252 258 303 611 0
-252 -258 -303 -611 0
253 259 304 612 0
-253 -259 -304 -612 0
254 260 305 613 0
-254 -260 -305 -613 0
255 261 306 614 0
-255 -261 -306 -614 0
262 268 307 615 0
-262 -268 -307 -615 0
263 269 308 616 0
-263 -269 -308 -616 0
264 270 309 617 0
-264 -270 -309 -617 0
265 271 310 618 0
-265 -271 -310 -618 0
272 278 311 619 0
-272 -278 -311 -619 0
273 279 312 620 0
-273 -279 -312 -620 0
274 280 313 621 0
-274 -280 -313 -621 0
281 287 314 622 0
-281 -287 -314 -622 0
282 288 315 623 0
-282 -288 -315 -623 0
289 295 316 624 0
-289 -295 -316 -624 0
317 323 374 625 0
-317 -323 -374 -625 0
318 324 375 626 0
-318 -324 -375 -626 0
319 325 376 627 0
-319 -325 -376 -627 0
320 326 377 628 0
-320 -326 -377 -628 0
321 327 378 629 0
-321 -327 -378 -629 0
322 328 379 630 0
-322 -328 -379 -630 0
329 335 380 631 0
-329 -335 -380 -631 0
330 336 381 632 0
-330 -336 -381 -632 0
331 337 382 633 0
-331 -337 -382 -633 0
332 338 383 634 0
-332 -338 -383 -634 0
333 339 384 635 0
-333 -339 -384 -635 0
340 346 385 636 0
-340 -346 -385 -636 0
341 347 386 637 0
-341 -347 -386 -637 0
342 348 387 638 0
-342 -348 -387 -638 0
343 349 388 639 0
-343 -349 -388 -639 0
350 356 389 640 0
-350 -356 -389 -640 0
351 357 390 641 0
-351 -357 -390 -641 0
352 358 391 642 0
-352 -358 -391 -642 0
359 365 392 643 0
-359 -365 -392 -643 0
360 366 393 644 0
-360 -366 -393 -644 0
367 373 394 645 0
-367 -373 -394 -645 0
395 401 446 646 0
-395 -401 -446 -646 0
396 402 447 647 0
-396 -402 -447 -647 0
397 403 448 648 0
-397 -403 -448 -648 0
398 404 449 649 0
-398 -404 -449 -649 0
399 405 450 650 0
-399 -405 -450 -650 0
406 412 451 651 0
-406 -412 -451 -651 0
407 413 452 652 0
-407 -413 -452 -652 0
408 414 453 653 0
-408 -414 -453 -653 0
409 415 454 654 0
-409 -415 -454 -654 0
416 422 455 655 0
-416 -422 -455 -655 0
417 423 456 656 0
-417 -423 -456 -656 0
418 424 457 657 0
-418 -424 -457 -657 0
425 431 458 658 0
-425 -431 -458 -658 0
426 432 459 659 0
-426 -432 -459 -659 0
433 439 460 660 0
-433 -439 -460 -660 0
461 467 506 661 0
-461 -467 -506 -661 0
462 468 507 662 0
-462 -468 -507 -662 0
463 469 508 663 0
-463 -469 -508 -663 0
464 470 509 664 0
-464 -470 -509 -664 0
471 477 510 665 0
-471 -477 -510 -665 0
472 478 511 666 0
-472 -478 -511 -666 0
473 479 512 667 0
-473 -479 -512 -667 0
480 486 513 668 0
-480 -486 -513 -668 0
481 487 514 669 0
-481 -487 -514 -669 0
488 494 515 670 0
-488 -494 -515 -670 0
516 522 555 671 0
-516 -522 -555 -671 0
517 523 556 672 0
-517 -523 -556 -672 0
518 524 557 673 0
-518 -524 -557 -673 0
525 531 558 674 0
-525 -531 -558 -674 0
526 532 559 675 0
-526 -532 -559 -675 0
533 539 560 676 0
-533 -539 -560 -676 0
561 567 594 677 0
-561 -567 -594 -677 0
562 568 595 678 0
-562 -568 -595 -678 0
569 575 596 679 0
-569 -575 -596 -679 0
597 603 624 680 0
-597 -603 -624 -680 0
4 22 155 561 0
-4 -22 -155 -561 0
3 25 157 562 0
-3 -25 -157 -562 0
7 28 159 563 0
-7 -28 -159 -563 0
10 31 161 564 0
-10 -31 -161 -564 0
13 34 163 565 0
-13 -34 -163 -565 0
16 37 165 566 0
-16 -37 -165 -566 0
19 40 167 567 0
-19 -40 -167 -567 0
22 43 169 568 0
-22 -43 -169 -568 0
2 24 171 569 0
-2 -24 -171 -569 0
6 27 173 570 0
-6 -27 -173 -570 0
9 30 175 571 0
-9 -30 -175 -571 0
12 33 177 572 0
-12 -33 -177 -572 0
15 36 179 573 0
-15 -36 -179 -573 0
18 39 181 574 0
-18 -39 -181 -574 0
21 42 183 575 0
-21 -42 -183 -575 0
45 59 185 576 0
-45 -59 -185 -576 0
47 61 187 577 0
-47 -61 -187 -577 0
49 63 189 578 0
-49 -63 -189 -578 0
51 65 191 579 0
-51 -65 -191 -579 0
53 67 193 580 0
-53 -67 -193 -580 0
55 69 195 581 0
-55 -69 -195 -581 0
71 85 197 582 0
-71 -85 -197 -582 0
73 87 199 583 0
-73 -87 -199 -583 0
75 89 201 584 0
-75 -89 -201 -584 0
77 91 203 585 0
-77 -91 -203 -585 0
79 93 205 586 0
-79 -93 -205 -586 0
95 109 207 587 0
-95 -109 -207 -587 0
97 111 209 588 0
-97 -111 -209 -588 0
99 113 211 589 0
-99 -113 -211 -589 0
101 115 213 590 0
-101 -115 -213 -590 0
117 131 215 591 0
-117 -131 -215 -591 0
119 133 217 592 0
-119 -133 -217 -592 0
121 135 219 593 0
-121 -135 -219 -593 0
137 151 221 594 0
-137 -151 -221 -594 0
139 153 223 595 0
-139 -153 -223 -595 0
155 169 225 596 0
-155 -169 -225 -596 0
1 23 170 597 0
-1 -23 -170 -597 0
5 26 172 598 0
-5 -26 -172 -598 0
8 29 174 599 0
-8 -29 -174 -599 0
11 32 176 600 0
-11 -32 -176 -600 0
14 35 178 601 0
-14 -35 -178 -601 0
17 38 180 602 0
-17 -38 -180 -602 0
20 41 182 603 0
-20 -41 -182 -603 0
44 58 184 604 0
-44 -58 -184 -604 0
46 60 186 605 0
-46 -60 -186 -605 0
48 62 188 606 0
-48 -62 -188 -606 0
50 64 190 607 0
-50 -64 -190 -607 0
52 66 192 608 0
-52 -66 -192 -608 0
54 68 194 609 0
-54 -68 -194 -609 0
70 84 196 610 0
-70 -84 -196 -610 0
72 86 198 611 0
-72 -86 -198 -611 0
74 88 200 612 0
-74 -88 -200 -612 0
76 90 202 613 0
-76 -90 -202 -613 0
78 92 204 614 0
-78 -92 -204 -614 0
94 108 206 615 0
-94 -108 -206 -615 0
96 110 208 616 0
-96 -110 -208 -616 0
98 112 210 617 0
-98 -112 -210 -617 0
100 114 212 618 0
-100 -114 -212 -618 0
116 130 214 619 0
-116 -130 -214 -619 0
118 132 216 620 0
-118 -132 -216 -620 0
120 134 218 621 0
-120 -134 -218 -621 0
136 150 220 622 0
-136 -150 -220 -622 0
138 152 222 623 0
-138 -152 -222 -623 0
154 168 224 624 0
-154 -168 -224 -624 0
226 233 296 625 0
-226 -233 -296 -625 0
227 234 297 626 0
-227 -234 -297 -626 0
228 235 298 627 0
-228 -235 -298 -627 0
229 236 299 628 0
-229 -236 -299 -628 0
230 237 300 629 0
-230 -237 -300 -629 0
231 238 301 630 0
-231 -238 -301 -630 0
239 246 302 631 0
-239 -246 -302 -631 0
240 247 303 632 0
-240 -247 -303 -632 0
241 248 304 633 0
-241 -248 -304 -633 0
242 249 305 634 0
-242 -249 -305 -634 0
243 250 306 635 0
-243 -250 -306 -635 0
251 258 307 636 0
-251 -258 -307 -636 0
252 259 308 637 0
-252 -259 -308 -637 0
253 260 309 638 0
-253 -260 -309 -638 0
254 261 310 639 0
-254 -261 -310 -639 0
262 269 311 640 0
-262 -269 -311 -640 0
263 270 312 641 0
-263 -270 -312 -641 0
264 271 313 642 0
-264 -271 -313 -642 0
272 279 314 643 0
-272 -279 -314 -643 0
273 280 315 644 0
-273 -280 -315 -644 0
281 288 316 645 0
-281 -288 -316 -645 0
317 324 380 646 0
-317 -324 -380 -646 0
318 325 381 647 0
-318 -325 -381 -647 0
319 326 382 648 0
-319 -326 -382 -648 0
320 327 383 649 0
-320 -327 -383 -649 0
321 328 384 650 0
-321 -328 -384 -650 0
329 336 385 651 0
-329 -336 -385 -651 0
330 337 386 652 0
-330 -337 -386 -652 0
331 338 387 653 0
-331 -338 -387 -653 0
332 339 388 654 0
-332 -339 -388 -654 0
340 347 389 655 0
-340 -347 -389 -655 0
341 348 390 656 0
-341 -348 -390 -656 0
342 349 391 657 0
-342 -349 -391 -657 0
350 357 392 658 0
-350 -357 -392 -658 0
351 358 393 659 0
-351 -358 -393 -659 0
359 366 394 660 0
-359 -366 -394 -660 0
395 402 451 661 0
-395 -402 -451 -661 0
396 403 452 662 0
-396 -403 -452 -662 0
397 404 453 663 0
-397 -404 -453 -663 0
398 405 454 664 0
-398 -405 -454 -664 0
406 413 455 665 0
-406 -413 -455 -665 0
407 414 456 666 0
-407 -414 -456 -666 0
408 415 457 667 0
-408 -415 -457 -667 0
416 423 458 668 0
-416 -423 -458 -668 0
417 424 459 669 0
-417 -424 -459 -669 0
425 432 460 670 0
-425 -432 -460 -670 0
461 468 510 671 0
-461 -468 -510 -671 0
462 469 511 672 0
-462 -469 -511 -672 0
463 470 512 673 0
-463 -470 -512 -673 0
471 478 513 674 0
-471 -478 -513 -674 0
472 479 514 675 0
-472 -479 -514 -675 0
480 487 515 676 0
-480 -487 -515 -676 0
516 523 558 677 0
-516 -523 -558 -677 0
517 524 559 678 0
-517 -524 -559 -678 0
525 532 560 679 0
-525 -532 -560 -679 0
561 568 596 680 0
-561 -568 -596 -680 0
4 25 171 597 0
-4 -25 -171 -597 0
3 28 173 598 0
-3 -28 -173 -598 0
7 31 175 599 0
-7 -31 -175 -599 0
10 34 177 600 0
-10 -34 -177 -600 0
13 37 179 601 0
-13 -37 -179 -601 0
16 40 181 602 0
-16 -40 -181 -602 0
19 43 183 603 0
-19 -43 -183 -603 0
2 27 185 604 0
-2 -27 -185 -604 0
6 30 187 605 0
-6 -30 -187 -605 0
9 33 189 606 0
-9 -33 -189 -606 0
12 36 191 607 0
-12 -36 -191 -607 0
15 39 193 608 0
-15 -39 -193 -608 0
18 42 195 609 0
-18 -42 -195 -609 0
45 61 197 610 0
-45 -61 -197 -610 0
47 63 199 611 0
-47 -63 -199 -611 0
49 65 201 612 0
-49 -65 -201 -612 0
51 67 203 613 0
-51 -67 -203 -613 0
53 69 205 614 0
-53 -69 -205 -614 0
71 87 207 615 0
-71 -87 -207 -615 0
73 89 209 616 0
-73 -89 -209 -616 0
75 91 211 617 0
-75 -91 -211 -617 0
77 93 213 618 0
-77 -93 -213 -618 0
95 111 215 619 0
-95 -111 -215 -619 0
97 113 217 620 0
-97 -113 -217 -620 0
99 115 219 621 0
-99 -115 -219 -621 0
117 133 221 622 0
-117 -133 -221 -622 0
119 135 223 623 0
-119 -135 -223 -623 0
137 153 225 624 0
-137 -153 -225 -624 0
1 26 184 625 0
-1 -26 -184 -625 0
5 29 186 626 0
-5 -29 -186 -626 0
8 32 188 627 0
-8 -32 -188 -627 0
11 35 190 628 0
-11 -35 -190 -628 0
14 38 192 629 0
-14 -38 -192 -629 0
17 41 194 630 0
-17 -41 -194 -630 0
44 60 196 631 0
-44 -60 -196 -631 0
46 62 198 632 0
-46 -62 -198 -632 0
48 64 200 633 0
-48 -64 -200 -633 0
50 66 202 634 0
-50 -66 -202 -634 0
52 68 204 635 0
-52 -68 -204 -635 0
70 86 206 636 0
-70 -86 -206 -636 0
72 88 208 637 0
-72 -88 -208 -637 0
74 90 210 638 0
-74 -90 -210 -638 0
76 92 212 639 0
-76 -92 -212 -639 0
94 110 214 640 0
-94 -110 -214 -640 0
96 112 216 641 0
-96 -112 -216 -641 0
98 114 218 642 0
-98 -114 -218 -642 0
116 132 220 643 0
-116 -132 -220 -643 0
118 134 222 644 0
-118 -134 -222 -644 0
136 152 224 645 0
-136 -152 -224 -645 0
226 234 302 646 0
-226 -234 -302 -646 0
227 235 303 647 0
-227 -235 -303 -647 0
228 236 304 648 0
-228 -236 -304 -648 0
229 237 305 649 0
-229 -237 -305 -649 0
230 238 306 650 0
-230 -238 -306 -650 0
239 247 307 651 0
-239 -247 -307 -651 0
240 248 308 652 0
-240 -248 -308 -652 0
241 249 309 653 0
-241 -249 -309 -653 0
242 250 310 654 0
-242 -250 -310 -654 0
251 259 311 655 0
-251 -259 -311 -655 0
252 260 312 656 0
-252 -260 -312 -656 0
253 261 313 657 0
-253 -261 -313 -657 0
262 270 314 658 0
-262 -270 -314 -658 0
263 271 315 659 0
-263 -271 -315 -659 0
272 280 316 660 0
-272 -280 -316 -660 0
317 325 385 661 0
-317 -325 -385 -661 0
318 326 386 662 0
-318 -326 -386 -662 0
319 327 387 663 0
-319 -327 -387 -663 0
320 328 388 664 0
-320 -328 -388 -664 0
329 337 389 665 0
-329 -337 -389 -665 0
330 338 390 666 0
-330 -338 -390 -666 0
331 339 391 667 0
-331 -339 -391 -667 0
340 348 392 668 0
-340 -348 -392 -668 0
341 349 393 669 0
-341 -349 -393 -669 0
350 358 394 670 0
-350 -358 -394 -670 0
395 403 455 671 0
-395 -403 -455 -671 0
396 404 456 672 0
-396 -404 -456 -672 0
397 405 457 673 0
-397 -405 -457 -673 0
406 414 458 674 0
-406 -414 -458 -674 0
407 415 459 675 0
-407 -415 -459 -675 0
416 424 460 676 0
-416 -424 -460 -676 0
461 469 513 677 0
-461 -469 -513 -677 0
462 470 514 678 0
-462 -470 -514 -678 0
471 479 515 679 0
-471 -479 -515 -679 0
516 524 560 680 0
-516 -524 -560 -680 0
4 28 185 625 0
-4 -28 -185 -625 0
3 31 187 626 0
-3 -31 -187 -626 0
7 34 189 627 0
-7 -34 -189 -627 0
10 37 191 628 0
-10 -37 -191 -628 0
13 40 193 629 0
-13 -40 -193 -629 0
16 43 195 630 0
-16 -43 -195 -630 0
2 30 197 631 0
-2 -30 -197 -631 0
6 33 199 632 0
-6 -33 -199 -632 0
9 36 201 633 0
-9 -36 -201 -633 0
12 39 203 634 0
-12 -39 -203 -634 0
15 42 205 635 0
-15 -42 -205 -635 0
45 63 207 636 0
-45 -63 -207 -636 0
47 65 209 637 0
-47 -65 -209 -637 0
49 67 211 638 0
-49 -67 -211 -638 0
51 69 213 639 0
-51 -69 -213 -639 0
71 89 215 640 0
-71 -89 -215 -640 0
73 91 217 641 0
-73 -91 -217 -641 0
75 93 219 642 0
-75 -93 -219 -642 0
95 113 221 643 0
-95 -113 -221 -643 0
97 115 223 644 0
-97 -115 -223 -644 0
117 135 225 645 0
-117 -135 -225 -645 0
1 29 196 646 0
-1 -29 -196 -646 0
5 32 198 647 0
-5 -32 -198 -647 0
8 35 200 648 0
-8 -35 -200 -648 0
11 38 202 649 0
-11 -38 -202 -649 0
14 41 204 650 0
-14 -41 -204 -650 0
44 62 206 651 0
-44 -62 -206 -651 0
46 64 208 652 0
-46 -64 -208 -652 0
48 66 210 653 0
-48 -66 -210 -653 0
50 68 212 654 0
-50 -68 -212 -654 0
70 88 214 655 0
-70 -88 -214 -655 0
72 90 216 656 0
-72 -90 -216 -656 0
74 92 218 657 0
-74 -92 -218 -657 0
94 112 220 658 0
-94 -112 -220 -658 0
96 114 222 659 0
-96 -114 -222 -659 0
116 134 224 660 0
-116 -134 -224 -660 0
226 235 307 661 0
-226 -235 -307 -661 0
227 236 308 662 0
-227 -236 -308 -662 0
228 237 309 663 0
-228 -237 -309 -663 0
229 238 310 664 0
-229 -238 -310 -664 0
239 248 311 665 0
-239 -248 -311 -665 0
240 249 312 666 0
-240 -249 -312 -666 0
241 250 313 667 0
-241 -250 -313 -667 0
251 260 314 668 0
-251 -260 -314 -668 0
252 261 315 669 0
-252 -261 -315 -669 0
262 271 316 670 0
-262 -271 -316 -670 0
317 326 389 671 0
-317 -326 -389 -671 0
318 327 390 672 0
-318 -327 -390 -672 0
319 328 391 673 0
-319 -328 -391 -673 0
329 338 392 674 0
-329 -338 -392 -674 0
330 339 393 675 0
-330 -339 -393 -675 0
340 349 394 676 0
-340 -349 -394 -676 0
395 404 458 677 0
-395 -404 -458 -677 0
396 405 459 678 0
-396 -405 -459 -678 0
406 415 460 679 0
-406 -415 -460 -679 0
461 470 515 680 0
-461 -470 -515 -680 0
4 31 197 646 0
-4 -31 -197 -646 0
3 34 199 647 0
-3 -34 -199 -647 0
7 37 201 648 0
-7 -37 -201 -648 0
10 40 203 649 0
-10 -40 -203 -649 0
13 43 205 650 0
-13 -43 -205 -650 0
2 33 207 651 0
-2 -33 -207 -651 0
6 36 209 652 0
-6 -36 -209 -652 0
9 39 211 653 0
-9 -39 -211 -653 0
12 42 213 654 0
-12 -42 -213 -654 0
45 65 215 655 0
-45 -65 -215 -655 0
47 67 217 656 0
-47 -67 -217 -656 0
49 69 219 657 0
-49 -69 -219 -657 0
71 91 221 658 0
-71 -91 -221 -658 0
73 93 223 659 0
-73 -93 -223 -659 0
95 115 225 660 0
-95 -115 -225 -660 0
1 32 206 661 0
-1 -32 -206 -661 0
5 35 208 662 0
-5 -35 -208 -662 0
8 38 210 663 0
-8 -38 -210 -663 0
11 41 212 664 0
-11 -41 -212 -664 0
44 64 214 665 0
-44 -64 -214 -665 0
46 66 216 666 0
-46 -66 -216 -666 0
48 68 218 667 0
-48 -68 -218 -667 0
70 90 220 668 0
-70 -90 -220 -668 0
72 92 222 669 0
-72 -92 -222 -669 0
94 114 224 670 0
-94 -114 -224 -670 0
226 236 311 671 0
-226 -236 -311 -671 0
227 237 312 672 0
-227 -237 -312 -672 0
228 238 313 673 0
-228 -238 -313 -673 0
239 249 314 674 0
-239 -249 -314 -674 0
240 250 315 675 0
-240 -250 -315 -675 0
251 261 316 676 0
-251 -261 -316 -676 0
317 327 392 677 0
-317 -327 -392 -677 0
318 328 393 678 0
-318 -328 -393 -678 0
329 339 394 679 0
-329 -339 -394 -679 0
395 405 460 680 0
-395 -405 -460 -680 0
4 34 207 661 0
-4 -34 -207 -661 0
3 37 209 662 0
-3 -37 -209 -662 0
7 40 211 663 0
-7 -40 -211 -663 0
10 43 213 664 0
-10 -43 -213 -664 0
2 36 215 665 0
-2 -36 -215 -665 0
6 39 217 666 0
-6 -39 -217 -666 0
9 42 219 667 0
-9 -42 -219 -667 0
45 67 221 668 0
-45 -67 -221 -668 0
47 69 223 669 0
-47 -69 -223 -669 0
71 93 225 670 0
-71 -93 -225 -670 0
1 35 214 671 0
-1 -35 -214 -671 0
5 38 216 672 0
-5 -38 -216 -672 0
8 41 218 673 0
-8 -41 -218 -673 0
44 66 220 674 0
-44 -66 -220 -674 0
46 68 222 675 0
-46 -68 -222 -675 0
70 92 224 676 0
-70 -92 -224 -676 0
226 237 314 677 0
-226 -237 -314 -677 0
227 238 315 678 0
-227 -238 -315 -678 0
239 250 316 679 0
-239 -250 -316 -679 0
317 328 394 680 0
-317 -328 -394 -680 0
4 37 215 671 0
-4 -37 -215 -671 0
3 40 217 672 0
-3 -40 -217 -672 0
7 43 219 673 0
-7 -43 -219 -673 0
2 39 221 674 0
-2 -39 -221 -674 0
6 42 223 675 0
-6 -42 -223 -675 0
45 69 225 676 0
-45 -69 -225 -676 0
1 38 220 677 0
-1 -38 -220 -677 0
5 41 222 678 0
-5 -41 -222 -678 0
44 68 224 679 0
-44 -68 -224 -679 0
226 238 316 680 0
-226 -238 -316 -680 0
4 40 221 677 0
-4 -40 -221 -677 0
3 43 223 678 0
-3 -43 -223 -678 0
2 42 225 679 0
-2 -42 -225 -679 0
1 41 224 680 0
-1 -41 -224 -680 0
4 43 225 680 0
-4 -43 -225 -680 0
