c S_n-invariant Hales-Jewett, k=4, n=13
p cnf 560 3640
1 2 3 4 0
-1 -2 -3 -4 0
3 5 6 7 0
-3 -5 -6 -7 0
7 8 9 10 0
-7 -8 -9 -10 0
10 11 12 13 0
-10 -11 -12 -13 0
13 14 15 16 0
-13 -14 -15 -16 0
16 17 18 19 0
-16 -17 -18 -19 0
19 20 21 22 0
-19 -20 -21 -22 0
22 23 24 25 0
-22 -23 -24 -25 0
25 26 27 28 0
-25 -26 -27 -28 0
28 29 30 31 0
-28 -29 -30 -31 0
31 32 33 34 0
-31 -32 -33 -34 0
34 35 36 37 0
-34 -35 -36 -37 0
37 38 39 40 0
-37 -38 -39 -40 0
2 6 41 42 0
-2 -6 -41 -42 0
6 9 43 44 0
-6 -9 -43 -44 0
9 12 45 46 0
-9 -12 -45 -46 0
12 15 47 48 0
-12 -15 -47 -48 0
15 18 49 50 0
-15 -18 -49 -50 0
18 21 51 52 0
-18 -21 -51 -52 0
21 24 53 54 0
-21 -24 -53 -54 0
24 27 55 56 0
-24 -27 -55 -56 0
27 30 57 58 0
-27 -30 -57 -58 0
30 33 59 60 0
-30 -33 -59 -60 0
33 36 61 62 0
-33 -36 -61 -62 0
36 39 63 64 0
-36 -39 -63 -64 0
42 44 65 66 0
-42 -44 -65 -66 0
44 46 67 68 0
-44 -46 -67 -68 0
46 48 69 70 0
-46 -48 -69 -70 0
48 50 71 72 0
-48 -50 -71 -72 0
50 52 73 74 0
-50 -52 -73 -74 0
52 54 75 76 0
-52 -54 -75 -76 0
54 56 77 78 0
-54 -56 -77 -78 0
56 58 79 80 0
-56 -58 -79 -80 0
58 60 81 82 0
-58 -60 -81 -82 0
60 62 83 84 0
-60 -62 -83 -84 0
62 64 85 86 0
-62 -64 -85 -86 0
66 68 87 88 0
-66 -68 -87 -88 0
68 70 89 90 0
-68 -70 -89 -90 0
70 72 91 92 0
-70 -72 -91 -92 0
72 74 93 94 0
-72 -74 -93 -94 0
74 76 95 96 0
-74 -76 -95 -96 0
76 78 97 98 0
-76 -78 -97 -98 0
78 80 99 100 0
-78 -80 -99 -100 0
80 82 101 102 0
-80 -82 -101 -102 0
82 84 103 104 0
-82 -84 -103 -104 0
84 86 105 106 0
-84 -86 -105 -106 0
88 90 107 108 0
-88 -90 -107 -108 0
90 92 109 110 0
-90 -92 -109 -110 0
92 94 111 112 0
-92 -94 -111 -112 0
94 96 113 114 0
-94 -96 -113 -114 0
96 98 115 116 0
-96 -98 -115 -116 0
98 100 117 118 0
-98 -100 -117 -118 0
100 102 119 120 0
-100 -102 -119 -120 0
102 104 121 122 0
-102 -104 -121 -122 0
104 106 123 124 0
-104 -106 -123 -124 0
108 110 125 126 0
-108 -110 -125 -126 0
110 112 127 128 0
-110 -112 -127 -128 0
112 114 129 130 0
-112 -114 -129 -130 0
114 116 131 132 0
-114 -116 -131 -132 0
116 118 133 134 0
-116 -118 -133 -134 0
118 120 135 136 0
-118 -120 -135 -136 0
120 122 137 138 0
-120 -122 -137 -138 0
122 124 139 140 0
-122 -124 -139 -140 0
126 128 141 142 0
-126 -128 -141 -142 0
128 130 143 144 0
-128 -130 -143 -144 0
130 132 145 146 0
-130 -132 -145 -146 0
132 134 147 148 0
-132 -134 -147 -148 0
134 136 149 150 0
-134 -136 -149 -150 0
136 138 151 152 0
-136 -138 -151 -152 0
138 140 153 154 0
-138 -140 -153 -154 0
142 144 155 156 0
-142 -144 -155 -156 0
144 146 157 158 0
-144 -146 -157 -158 0
146 148 159 160 0
-146 -148 -159 -160 0
148 150 161 162 0
-148 -150 -161 -162 0
150 152 163 164 0
-150 -152 -163 -164 0
152 154 165 166 0
-152 -154 -165 -166 0
156 158 167 168 0
-156 -158 -167 -168 0
158 160 169 170 0
-158 -160 -169 -170 0
160 162 171 172 0
-160 -162 -171 -172 0
162 164 173 174 0
-162 -164 -173 -174 0
164 166 175 176 0
-164 -166 -175 -176 0
168 170 177 178 0
-168 -170 -177 -178 0
170 172 179 180 0
-170 -172 -179 -180 0
172 174 181 182 0
-172 -174 -181 -182 0
174 176 183 184 0
-174 -176 -183 -184 0
178 180 185 186 0
-178 -180 -185 -186 0
180 182 187 188 0
-180 -182 -187 -188 0
182 184 189 190 0
-182 -184 -189 -190 0
186 188 191 192 0
-186 -188 -191 -192 0
188 190 193 194 0
-188 -190 -193 -194 0
192 194 195 196 0
-192 -194 -195 -196 0
1 5 41 197 0
-1 -5 -41 -197 0
5 8 43 198 0
-5 -8 -43 -198 0
8 11 45 199 0
-8 -11 -45 -199 0
11 14 47 200 0
-11 -14 -47 -200 0
14 17 49 201 0
-14 -17 -49 -201 0
17 20 51 202 0
-17 -20 -51 -202 0
20 23 53 203 0
-20 -23 -53 -203 0
23 26 55 204 0
-23 -26 -55 -204 0
26 29 57 205 0
-26 -29 -57 -205 0
29 32 59 206 0
-29 -32 -59 -206 0
32 35 61 207 0
-32 -35 -61 -207 0
35 38 63 208 0
-35 -38 -63 -208 0
41 43 65 209 0
-41 -43 -65 -209 0
43 45 67 210 0
-43 -45 -67 -210 0
45 47 69 211 0
-45 -47 -69 -211 0
47 49 71 212 0
-47 -49 -71 -212 0
49 51 73 213 0
-49 -51 -73 -213 0
51 53 75 214 0
-51 -53 -75 -214 0
53 55 77 215 0
-53 -55 -77 -215 0
55 57 79 216 0
-55 -57 -79 -216 0
57 59 81 217 0
-57 -59 -81 -217 0
59 61 83 218 0
-59 -61 -83 -218 0
61 63 85 219 0
-61 -63 -85 -219 0
65 67 87 220 0
-65 -67 -87 -220 0
67 69 89 221 0
-67 -69 -89 -221 0
69 71 91 222 0
-69 -71 -91 -222 0
71 73 93 223 0
-71 -73 -93 -223 0
73 75 95 224 0
-73 -75 -95 -224 0
75 77 97 225 0
-75 -77 -97 -225 0
77 79 99 226 0
-77 -79 -99 -226 0
79 81 101 227 0
-79 -81 -101 -227 0
81 83 103 228 0
-81 -83 -103 -228 0
83 85 105 229 0
-83 -85 -105 -229 0
87 89 107 230 0
-87 -89 -107 -230 0
89 91 109 231 0
-89 -91 -109 -231 0
91 93 111 232 0
-91 -93 -111 -232 0
93 95 113 233 0
-93 -95 -113 -233 0
95 97 115 234 0
-95 -97 -115 -234 0
97 99 117 235 0
-97 -99 -117 -235 0
99 101 119 236 0
-99 -101 -119 -236 0
101 103 121 237 0
-101 -103 -121 -237 0
103 105 123 238 0
-103 -105 -123 -238 0
107 109 125 239 0
-107 -109 -125 -239 0
109 111 127 240 0
-109 -111 -127 -240 0
111 113 129 241 0
-111 -113 -129 -241 0
113 115 131 242 0
-113 -115 -131 -242 0
115 117 133 243 0
-115 -117 -133 -243 0
117 119 135 244 0
-117 -119 -135 -244 0
119 121 137 245 0
-119 -121 -137 -245 0
121 123 139 246 0
-121 -123 -139 -246 0
125 127 141 247 0
-125 -127 -141 -247 0
127 129 143 248 0
-127 -129 -143 -248 0
129 131 145 249 0
-129 -131 -145 -249 0
131 133 147 250 0
-131 -133 -147 -250 0
133 135 149 251 0
-133 -135 -149 -251 0
135 137 151 252 0
-135 -137 -151 -252 0
137 139 153 253 0
-137 -139 -153 -253 0
141 143 155 254 0
-141 -143 -155 -254 0
143 145 157 255 0
-143 -145 -157 -255 0
145 147 159 256 0
-145 -147 -159 -256 0
147 149 161 257 0
-147 -149 -161 -257 0
149 151 163 258 0
-149 -151 -163 -258 0
151 153 165 259 0
-151 -153 -165 -259 0
155 157 167 260 0
-155 -157 -167 -260 0
157 159 169 261 0
-157 -159 -169 -261 0
159 161 171 262 0
-159 -161 -171 -262 0
161 163 173 263 0
-161 -163 -173 -263 0
163 165 175 264 0
-163 -165 -175 -264 0
167 169 177 265 0
-167 -169 -177 -265 0
169 171 179 266 0
-169 -171 -179 -266 0
171 173 181 267 0
-171 -173 -181 -267 0
173 175 183 268 0
-173 -175 -183 -268 0
177 179 185 269 0
-177 -179 -185 -269 0
179 181 187 270 0
-179 -181 -187 -270 0
181 183 189 271 0
-181 -183 -189 -271 0
185 187 191 272 0
-185 -187 -191 -272 0
187 189 193 273 0
-187 -189 -193 -273 0
191 193 195 274 0
-191 -193 -195 -274 0
197 198 209 275 0
-197 -198 -209 -275 0
198 199 210 276 0
-198 -199 -210 -276 0
199 200 211 277 0
-199 -200 -211 -277 0
200 201 212 278 0
-200 -201 -212 -278 0
201 202 213 279 0
-201 -202 -213 -279 0
202 203 214 280 0
-202 -203 -214 -280 0
203 204 215 281 0
-203 -204 -215 -281 0
204 205 216 282 0
-204 -205 -216 -282 0
205 206 217 283 0
-205 -206 -217 -283 0
206 207 218 284 0
-206 -207 -218 -284 0
207 208 219 285 0
-207 -208 -219 -285 0
209 210 220 286 0
-209 -210 -220 -286 0
210 211 221 287 0
-210 -211 -221 -287 0
211 212 222 288 0
-211 -212 -222 -288 0
212 213 223 289 0
-212 -213 -223 -289 0
213 214 224 290 0
-213 -214 -224 -290 0
214 215 225 291 0
-214 -215 -225 -291 0
215 216 226 292 0
-215 -216 -226 -292 0
216 217 227 293 0
-216 -217 -227 -293 0
217 218 228 294 0
-217 -218 -228 -294 0
218 219 229 295 0
-218 -219 -229 -295 0
220 221 230 296 0
-220 -221 -230 -296 0
221 222 231 297 0
-221 -222 -231 -297 0
222 223 232 298 0
-222 -223 -232 -298 0
223 224 233 299 0
-223 -224 -233 -299 0
224 225 234 300 0
-224 -225 -234 -300 0
225 226 235 301 0
-225 -226 -235 -301 0
226 227 236 302 0
-226 -227 -236 -302 0
227 228 237 303 0
-227 -228 -237 -303 0
228 229 238 304 0
-228 -229 -238 -304 0
230 231 239 305 0
-230 -231 -239 -305 0
231 232 240 306 0
-231 -232 -240 -306 0
232 233 241 307 0
-232 -233 -241 -307 0
233 234 242 308 0
-233 -234 -242 -308 0
234 235 243 309 0
-234 -235 -243 -309 0
235 236 244 310 0
-235 -236 -244 -310 0
236 237 245 311 0
-236 -237 -245 -311 0
237 238 246 312 0
-237 -238 -246 -312 0
239 240 247 313 0
-239 -240 -247 -313 0
240 241 248 314 0
-240 -241 -248 -314 0
241 242 249 315 0
-241 -242 -249 -315 0
242 243 250 316 0
-242 -243 -250 -316 0
243 244 251 317 0
-243 -244 -251 -317 0
244 245 252 318 0
-244 -245 -252 -318 0
245 246 253 319 0
-245 -246 -253 -319 0
247 248 254 320 0
-247 -248 -254 -320 0
248 249 255 321 0
-248 -249 -255 -321 0
249 250 256 322 0
-249 -250 -256 -322 0
250 251 257 323 0
-250 -251 -257 -323 0
251 252 258 324 0
-251 -252 -258 -324 0
252 253 259 325 0
-252 -253 -259 -325 0
254 255 260 326 0
-254 -255 -260 -326 0
255 256 261 327 0
-255 -256 -261 -327 0
256 257 262 328 0
-256 -257 -262 -328 0
257 258 263 329 0
-257 -258 -263 -329 0
258 259 264 330 0
-258 -259 -264 -330 0
260 261 265 331 0
-260 -261 -265 -331 0
261 262 266 332 0
-261 -262 -266 -332 0
262 263 267 333 0
-262 -263 -267 -333 0
263 264 268 334 0
-263 -264 -268 -334 0
265 266 269 335 0
-265 -266 -269 -335 0
266 267 270 336 0
-266 -267 -270 -336 0
267 268 271 337 0
-267 -268 -271 -337 0
269 270 272 338 0
-269 -270 -272 -338 0
270 271 273 339 0
-270 -271 -273 -339 0
272 273 274 340 0
-272 -273 -274 -340 0
275 276 286 341 0
-275 -276 -286 -341 0
276 277 287 342 0
-276 -277 -287 -342 0
277 278 288 343 0
-277 -278 -288 -343 0
278 279 289 344 0
-278 -279 -289 -344 0
279 280 290 345 0
-279 -280 -290 -345 0
280 281 291 346 0
-280 -281 -291 -346 0
281 282 292 347 0
-281 -282 -292 -347 0
282 283 293 348 0
-282 -283 -293 -348 0
283 284 294 349 0
-283 -284 -294 -349 0
284 285 295 350 0
-284 -285 -295 -350 0
286 287 296 351 0
-286 -287 -296 -351 0
287 288 297 352 0
-287 -288 -297 -352 0
288 289 298 353 0
-288 -289 -298 -353 0
289 290 299 354 0
-289 -290 -299 -354 0
290 291 300 355 0
-290 -291 -300 -355 0
291 292 301 356 0
-291 -292 -301 -356 0
292 293 302 357 0
-292 -293 -302 -357 0
293 294 303 358 0
-293 -294 -303 -358 0
294 295 304 359 0
-294 -295 -304 -359 0
296 297 305 360 0
-296 -297 -305 -360 0
297 298 306 361 0
-297 -298 -306 -361 0
298 299 307 362 0
-298 -299 -307 -362 0
299 300 308 363 0
-299 -300 -308 -363 0
300 301 309 364 0
-300 -301 -309 -364 0
301 302 310 365 0
-301 -302 -310 -365 0
302 303 311 366 0
-302 -303 -311 -366 0
303 304 312 367 0
-303 -304 -312 -367 0
305 306 313 368 0
-305 -306 -313 -368 0
306 307 314 369 0
-306 -307 -314 -369 0
307 308 315 370 0
-307 -308 -315 -370 0
308 309 316 371 0
-308 -309 -316 -371 0
309 310 317 372 0
-309 -310 -317 -372 0
310 311 318 373 0
-310 -311 -318 -373 0
311 312 319 374 0
-311 -312 -319 -374 0
313 314 320 375 0
-313 -314 -320 -375 0
314 315 321 376 0
-314 -315 -321 -376 0
315 316 322 377 0
-315 -316 -322 -377 0
316 317 323 378 0
-316 -317 -323 -378 0
317 318 324 379 0
-317 -318 -324 -379 0
318 319 325 380 0
-318 -319 -325 -380 0
320 321 326 381 0
-320 -321 -326 -381 0
321 322 327 382 0
-321 -322 -327 -382 0
322 323 328 383 0
-322 -323 -328 -383 0
323 324 329 384 0
-323 -324 -329 -384 0
324 325 330 385 0
-324 -325 -330 -385 0
326 327 331 386 0
-326 -327 -331 -386 0
327 328 332 387 0
-327 -328 -332 -387 0
328 329 333 388 0
-328 -329 -333 -388 0
329 330 334 389 0
-329 -330 -334 -389 0
331 332 335 390 0
-331 -332 -335 -390 0
332 333 336 391 0
-332 -333 -336 -391 0
333 334 337 392 0
-333 -334 -337 -392 0
335 336 338 393 0
-335 -336 -338 -393 0
336 337 339 394 0
-336 -337 -339 -394 0
338 339 340 395 0
-338 -339 -340 -395 0
341 342 351 396 0
-341 -342 -351 -396 0
342 343 352 397 0
-342 -343 -352 -397 0
343 344 353 398 0
-343 -344 -353 -398 0
344 345 354 399 0
-344 -345 -354 -399 0
345 346 355 400 0
-345 -346 -355 -400 0
346 347 356 401 0
-346 -347 -356 -401 0
347 348 357 402 0
-347 -348 -357 -402 0
348 349 358 403 0
-348 -349 -358 -403 0
349 350 359 404 0
-349 -350 -359 -404 0
351 352 360 405 0
-351 -352 -360 -405 0
352 353 361 406 0
-352 -353 -361 -406 0
353 354 362 407 0
-353 -354 -362 -407 0
354 355 363 408 0
-354 -355 -363 -408 0
355 356 364 409 0
-355 -356 -364 -409 0
356 357 365 410 0
-356 -357 -365 -410 0
357 358 366 411 0
-357 -358 -366 -411 0
358 359 367 412 0
-358 -359 -367 -412 0
360 361 368 413 0
-360 -361 -368 -413 0
361 362 369 414 0
-361 -362 -369 -414 0
362 363 370 415 0
-362 -363 -370 -415 0
363 364 371 416 0
-363 -364 -371 -416 0
364 365 372 417 0
-364 -365 -372 -417 0
365 366 373 418 0
-365 -366 -373 -418 0
366 367 374 419 0
-366 -367 -374 -419 0
368 369 375 420 0
-368 -369 -375 -420 0
369 370 376 421 0
-369 -370 -376 -421 0
370 371 377 422 0
-370 -371 -377 -422 0
371 372 378 423 0
-371 -372 -378 -423 0
372 373 379 424 0
-372 -373 -379 -424 0
373 374 380 425 0
-373 -374 -380 -425 0
375 376 381 426 0
-375 -376 -381 -426 0
376 377 382 427 0
-376 -377 -382 -427 0
377 378 383 428 0
-377 -378 -383 -428 0
378 379 384 429 0
-378 -379 -384 -429 0
379 380 385 430 0
-379 -380 -385 -430 0
381 382 386 431 0
-381 -382 -386 -431 0
382 383 387 432 0
-382 -383 -387 -432 0
383 384 388 433 0
-383 -384 -388 -433 0
384 385 389 434 0
-384 -385 -389 -434 0
386 387 390 435 0
-386 -387 -390 -435 0
387 388 391 436 0
-387 -388 -391 -436 0
388 389 392 437 0
-388 -389 -392 -437 0
390 391 393 438 0
-390 -391 -393 -438 0
391 392 394 439 0
-391 -392 -394 -439 0
393 394 395 440 0
-393 -394 -395 -440 0
396 397 405 441 0
-396 -397 -405 -441 0
397 398 406 442 0
-397 -398 -406 -442 0
398 399 407 443 0
-398 -399 -407 -443 0
399 400 408 444 0
-399 -400 -408 -444 0
400 401 409 445 0
-400 -401 -409 -445 0
401 402 410 446 0
-401 -402 -410 -446 0
402 403 411 447 0
-402 -403 -411 -447 0
403 404 412 448 0
-403 -404 -412 -448 0
405 406 413 449 0
-405 -406 -413 -449 0
406 407 414 450 0
-406 -407 -414 -450 0
407 408 415 451 0
-407 -408 -415 -451 0
408 409 416 452 0
-408 -409 -416 -452 0
409 410 417 453 0
-409 -410 -417 -453 0
410 411 418 454 0
-410 -411 -418 -454 0
411 412 419 455 0
-411 -412 -419 -455 0
413 414 420 456 0
-413 -414 -420 -456 0
414 415 421 457 0
-414 -415 -421 -457 0
415 416 422 458 0
-415 -416 -422 -458 0
416 417 423 459 0
-416 -417 -423 -459 0
417 418 424 460 0
-417 -418 -424 -460 0
418 419 425 461 0
-418 -419 -425 -461 0
420 421 426 462 0
-420 -421 -426 -462 0
421 422 427 463 0
-421 -422 -427 -463 0
422 423 428 464 0
-422 -423 -428 -464 0
423 424 429 465 0
-423 -424 -429 -465 0
424 425 430 466 0
-424 -425 -430 -466 0
426 427 431 467 0
-426 -427 -431 -467 0
427 428 432 468 0
-427 -428 -432 -468 0
428 429 433 469 0
-428 -429 -433 -469 0
429 430 434 470 0
-429 -430 -434 -470 0
431 432 435 471 0
-431 -432 -435 -471 0
432 433 436 472 0
-432 -433 -436 -472 0
433 434 437 473 0
-433 -434 -437 -473 0
435 436 438 474 0
-435 -436 -438 -474 0
436 437 439 475 0
-436 -437 -439 -475 0
438 439 440 476 0
-438 -439 -440 -476 0
441 442 449 477 0
-441 -442 -449 -477 0
442 443 450 478 0
-442 -443 -450 -478 0
443 444 451 479 0
-443 -444 -451 -479 0
444 445 452 480 0
-444 -445 -452 -480 0
445 446 453 481 0
-445 -446 -453 -481 0
446 447 454 482 0
-446 -447 -454 -482 0
447 448 455 483 0
-447 -448 -455 -483 0
449 450 456 484 0
-449 -450 -456 -484 0
450 451 457 485 0
-450 -451 -457 -485 0
451 452 458 486 0
-451 -452 -458 -486 0
452 453 459 487 0
-452 -453 -459 -487 0
453 454 460 488 0
-453 -454 -460 -488 0
454 455 461 489 0
-454 -455 -461 -489 0
456 457 462 490 0
-456 -457 -462 -490 0
457 458 463 491 0
-457 -458 -463 -491 0
458 459 464 492 0
-458 -459 -464 -492 0
459 460 465 493 0
-459 -460 -465 -493 0
460 461 466 494 0
-460 -461 -466 -494 0
462 463 467 495 0
-462 -463 -467 -495 0
463 464 468 496 0
-463 -464 -468 -496 0
464 465 469 497 0
-464 -465 -469 -497 0
465 466 470 498 0
-465 -466 -470 -498 0
467 468 471 499 0
-467 -468 -471 -499 0
468 469 472 500 0
-468 -469 -472 -500 0
469 470 473 501 0
-469 -470 -473 -501 0
471 472 474 502 0
-471 -472 -474 -502 0
472 473 475 503 0
-472 -473 -475 -503 0
474 475 476 504 0
-474 -475 -476 -504 0
477 478 484 505 0
-477 -478 -484 -505 0
478 479 485 506 0
-478 -479 -485 -506 0
479 480 486 507 0
-479 -480 -486 -507 0
480 481 487 508 0
-480 -481 -487 -508 0
481 482 488 509 0
-481 -482 -488 -509 0
482 483 489 510 0
-482 -483 -489 -510 0
484 485 490 511 0
-484 -485 -490 -511 0
485 486 491 512 0
-485 -486 -491 -512 0
486 487 492 513 0
-486 -487 -492 -513 0
487 488 493 514 0
-487 -488 -493 -514 0
488 489 494 515 0
-488 -489 -494 -515 0
490 491 495 516 0
-490 -491 -495 -516 0
491 492 496 517 0
-491 -492 -496 -517 0
492 493 497 518 0
-492 -493 -497 -518 0
493 494 498 519 0
-493 -494 -498 -519 0
495 496 499 520 0
-495 -496 -499 -520 0
496 497 500 521 0
-496 -497 -500 -521 0
497 498 501 522 0
-497 -498 -501 -522 0
499 500 502 523 0
-499 -500 -502 -523 0
500 501 503 524 0
-500 -501 -503 -524 0
502 503 504 525 0
-502 -503 -504 -525 0
505 506 511 526 0
-505 -506 -511 -526 0
506 507 512 527 0
-506 -507 -512 -527 0
507 508 513 528 0
-507 -508 -513 -528 0
508 509 514 529 0
-508 -509 -514 -529 0
509 510 515 530 0
-509 -510 -515 -530 0
511 512 516 531 0
-511 -512 -516 -531 0
512 513 517 532 0
-512 -513 -517 -532 0
513 514 518 533 0
-513 -514 -518 -533 0
514 515 519 534 0
-514 -515 -519 -534 0
516 517 520 535 0
-516 -517 -520 -535 0
517 518 521 536 0
-517 -518 -521 -536 0
518 519 522 537 0
-518 -519 -522 -537 0
520 521 523 538 0
-520 -521 -523 -538 0
521 522 524 539 0
-521 -522 -524 -539 0
523 524 525 540 0
-523 -524 -525 -540 0
526 527 531 541 0
-526 -527 -531 -541 0
527 528 532 542 0
-527 -528 -532 -542 0
528 529 533 543 0
-528 -529 -533 -543 0
529 530 534 544 0
-529 -530 -534 -544 0
531 532 535 545 0
-531 -532 -535 -545 0
532 533 536 546 0
-532 -533 -536 -546 0
533 534 537 547 0
-533 -534 -537 -547 0
535 536 538 548 0
-535 -536 -538 -548 0
536 537 539 549 0
-536 -537 -539 -549 0
538 539 540 550 0
-538 -539 -540 -550 0
541 542 545 551 0
-541 -542 -545 -551 0
542 543 546 552 0
-542 -543 -546 -552 0
543 544 547 553 0
-543 -544 -547 -553 0
545 546 548 554 0
-545 -546 -548 -554 0
546 547 549 555 0
-546 -547 -549 -555 0
548 549 550 556 0
-548 -549 -550 -556 0
551 552 554 557 0
-551 -552 -554 -557 0
552 553 555 558 0
-552 -553 -555 -558 0
554 555 556 559 0
-554 -555 -556 -559 0
557 558 559 560 0
-557 -558 -559 -560 0
4 7 42 197 0
-4 -7 -42 -197 0
3 10 44 198 0
-3 -10 -44 -198 0
7 13 46 199 0
-7 -13 -46 -199 0
10 16 48 200 0
-10 -16 -48 -200 0
13 19 50 201 0
-13 -19 -50 -201 0
16 22 52 202 0
-16 -22 -52 -202 0
19 25 54 203 0
-19 -25 -54 -203 0
22 28 56 204 0
-22 -28 -56 -204 0
25 31 58 205 0
-25 -31 -58 -205 0
28 34 60 206 0
-28 -34 -60 -206 0
31 37 62 207 0
-31 -37 -62 -207 0
34 40 64 208 0
-34 -40 -64 -208 0
2 9 66 209 0
-2 -9 -66 -209 0
6 12 68 210 0
-6 -12 -68 -210 0
9 15 70 211 0
-9 -15 -70 -211 0
12 18 72 212 0
-12 -18 -72 -212 0
15 21 74 213 0
-15 -21 -74 -213 0
18 24 76 214 0
-18 -24 -76 -214 0
21 27 78 215 0
-21 -27 -78 -215 0
24 30 80 216 0
-24 -30 -80 -216 0
27 33 82 217 0
-27 -33 -82 -217 0
30 36 84 218 0
-30 -36 -84 -218 0
33 39 86 219 0
-33 -39 -86 -219 0
42 46 88 220 0
-42 -46 -88 -220 0
44 48 90 221 0
-44 -48 -90 -221 0
46 50 92 222 0
-46 -50 -92 -222 0
48 52 94 223 0
-48 -52 -94 -223 0
50 54 96 224 0
-50 -54 -96 -224 0
52 56 98 225 0
-52 -56 -98 -225 0
54 58 100 226 0
-54 -58 -100 -226 0
56 60 102 227 0
-56 -60 -102 -227 0
58 62 104 228 0
-58 -62 -104 -228 0
60 64 106 229 0
-60 -64 -106 -229 0
66 70 108 230 0
-66 -70 -108 -230 0
68 72 110 231 0
-68 -72 -110 -231 0
70 74 112 232 0
-70 -74 -112 -232 0
72 76 114 233 0
-72 -76 -114 -233 0
74 78 116 234 0
-74 -78 -116 -234 0
76 80 118 235 0
-76 -80 -118 -235 0
78 82 120 236 0
-78 -82 -120 -236 0
80 84 122 237 0
-80 -84 -122 -237 0
82 86 124 238 0
-82 -86 -124 -238 0
88 92 126 239 0
-88 -92 -126 -239 0
90 94 128 240 0
-90 -94 -128 -240 0
92 96 130 241 0
-92 -96 -130 -241 0
94 98 132 242 0
-94 -98 -132 -242 0
96 100 134 243 0
-96 -100 -134 -243 0
98 102 136 244 0
-98 -102 -136 -244 0
100 104 138 245 0
-100 -104 -138 -245 0
102 106 140 246 0
-102 -106 -140 -246 0
108 112 142 247 0
-108 -112 -142 -247 0
110 114 144 248 0
-110 -114 -144 -248 0
112 116 146 249 0
-112 -116 -146 -249 0
114 118 148 250 0
-114 -118 -148 -250 0
116 120 150 251 0
-116 -120 -150 -251 0
118 122 152 252 0
-118 -122 -152 -252 0
120 124 154 253 0
-120 -124 -154 -253 0
126 130 156 254 0
-126 -130 -156 -254 0
128 132 158 255 0
-128 -132 -158 -255 0
130 134 160 256 0
-130 -134 -160 -256 0
132 136 162 257 0
-132 -136 -162 -257 0
134 138 164 258 0
-134 -138 -164 -258 0
136 140 166 259 0
-136 -140 -166 -259 0
142 146 168 260 0
-142 -146 -168 -260 0
144 148 170 261 0
-144 -148 -170 -261 0
146 150 172 262 0
-146 -150 -172 -262 0
148 152 174 263 0
-148 -152 -174 -263 0
150 154 176 264 0
-150 -154 -176 -264 0
156 160 178 265 0
-156 -160 -178 -265 0
158 162 180 266 0
-158 -162 -180 -266 0
160 164 182 267 0
-160 -164 -182 -267 0
162 166 184 268 0
-162 -166 -184 -268 0
168 172 186 269 0
-168 -172 -186 -269 0
170 174 188 270 0
-170 -174 -188 -270 0
172 176 190 271 0
-172 -176 -190 -271 0
178 182 192 272 0
-178 -182 -192 -272 0
180 184 194 273 0
-180 -184 -194 -273 0
186 190 196 274 0
-186 -190 -196 -274 0
1 8 65 275 0
-1 -8 -65 -275 0
5 11 67 276 0
-5 -11 -67 -276 0
8 14 69 277 0
-8 -14 -69 -277 0
11 17 71 278 0
-11 -17 -71 -278 0
14 20 73 279 0
-14 -20 -73 -279 0
17 23 75 280 0
-17 -23 -75 -280 0
20 26 77 281 0
-20 -26 -77 -281 0
23 29 79 282 0
-23 -29 -79 -282 0
26 32 81 283 0
-26 -32 -81 -283 0
29 35 83 284 0
-29 -35 -83 -284 0
32 38 85 285 0
-32 -38 -85 -285 0
41 45 87 286 0
-41 -45 -87 -286 0
43 47 89 287 0
-43 -47 -89 -287 0
45 49 91 288 0
-45 -49 -91 -288 0
47 51 93 289 0
-47 -51 -93 -289 0
49 53 95 290 0
-49 -53 -95 -290 0
51 55 97 291 0
-51 -55 -97 -291 0
53 57 99 292 0
-53 -57 -99 -292 0
55 59 101 293 0
-55 -59 -101 -293 0
57 61 103 294 0
-57 -61 -103 -294 0
59 63 105 295 0
-59 -63 -105 -295 0
65 69 107 296 0
-65 -69 -107 -296 0
67 71 109 297 0
-67 -71 -109 -297 0
69 73 111 298 0
-69 -73 -111 -298 0
71 75 113 299 0
-71 -75 -113 -299 0
73 77 115 300 0
-73 -77 -115 -300 0
75 79 117 301 0
-75 -79 -117 -301 0
77 81 119 302 0
-77 -81 -119 -302 0
79 83 121 303 0
-79 -83 -121 -303 0
81 85 123 304 0
-81 -85 -123 -304 0
87 91 125 305 0
-87 -91 -125 -305 0
89 93 127 306 0
-89 -93 -127 -306 0
91 95 129 307 0
-91 -95 -129 -307 0
93 97 131 308 0
-93 -97 -131 -308 0
95 99 133 309 0
-95 -99 -133 -309 0
97 101 135 310 0
-97 -101 -135 -310 0
99 103 137 311 0
-99 -103 -137 -311 0
101 105 139 312 0
-101 -105 -139 -312 0
107 111 141 313 0
-107 -111 -141 -313 0
109 113 143 314 0
-109 -113 -143 -314 0
111 115 145 315 0
-111 -115 -145 -315 0
113 117 147 316 0
-113 -117 -147 -316 0
115 119 149 317 0
-115 -119 -149 -317 0
117 121 151 318 0
-117 -121 -151 -318 0
119 123 153 319 0
-119 -123 -153 -319 0
125 129 155 320 0
-125 -129 -155 -320 0
127 131 157 321 0
-127 -131 -157 -321 0
129 133 159 322 0
-129 -133 -159 -322 0
131 135 161 323 0
-131 -135 -161 -323 0
133 137 163 324 0
-133 -137 -163 -324 0
135 139 165 325 0
-135 -139 -165 -325 0
141 145 167 326 0
-141 -145 -167 -326 0
143 147 169 327 0
-143 -147 -169 -327 0
145 149 171 328 0
-145 -149 -171 -328 0
147 151 173 329 0
-147 -151 -173 -329 0
149 153 175 330 0
-149 -153 -175 -330 0
155 159 177 331 0
-155 -159 -177 -331 0
157 161 179 332 0
-157 -161 -179 -332 0
159 163 181 333 0
-159 -163 -181 -333 0
161 165 183 334 0
-161 -165 -183 -334 0
167 171 185 335 0
-167 -171 -185 -335 0
169 173 187 336 0
-169 -173 -187 -336 0
171 175 189 337 0
-171 -175 -189 -337 0
177 181 191 338 0
-177 -181 -191 -338 0
179 183 193 339 0
-179 -183 -193 -339 0
185 189 195 340 0
-185 -189 -195 -340 0
197 199 220 341 0
-197 -199 -220 -341 0
198 200 221 342 0
-198 -200 -221 -342 0
199 201 222 343 0
-199 -201 -222 -343 0
200 202 223 344 0
-200 -202 -223 -344 0
201 203 224 345 0
-201 -203 -224 -345 0
202 204 225 346 0
-202 -204 -225 -346 0
203 205 226 347 0
-203 -205 -226 -347 0
204 206 227 348 0
-204 -206 -227 -348 0
205 207 228 349 0
-205 -207 -228 -349 0
206 208 229 350 0
-206 -208 -229 -350 0
209 211 230 351 0
-209 -211 -230 -351 0
210 212 231 352 0
-210 -212 -231 -352 0
211 213 232 353 0
-211 -213 -232 -353 0
212 214 233 354 0
-212 -214 -233 -354 0
213 215 234 355 0
-213 -215 -234 -355 0
214 216 235 356 0
-214 -216 -235 -356 0
215 217 236 357 0
-215 -217 -236 -357 0
216 218 237 358 0
-216 -218 -237 -358 0
217 219 238 359 0
-217 -219 -238 -359 0
220 222 239 360 0
-220 -222 -239 -360 0
221 223 240 361 0
-221 -223 -240 -361 0
222 224 241 362 0
-222 -224 -241 -362 0
223 225 242 363 0
-223 -225 -242 -363 0
224 226 243 364 0
-224 -226 -243 -364 0
225 227 244 365 0
-225 -227 -244 -365 0
226 228 245 366 0
-226 -228 -245 -366 0
227 229 246 367 0
-227 -229 -246 -367 0
230 232 247 368 0
-230 -232 -247 -368 0
231 233 248 369 0
-231 -233 -248 -369 0
232 234 249 370 0
-232 -234 -249 -370 0
233 235 250 371 0
-233 -235 -250 -371 0
234 236 251 372 0
-234 -236 -251 -372 0
235 237 252 373 0
-235 -237 -252 -373 0
236 238 253 374 0
-236 -238 -253 -374 0
239 241 254 375 0
-239 -241 -254 -375 0
240 242 255 376 0
-240 -242 -255 -376 0
241 243 256 377 0
-241 -243 -256 -377 0
242 244 257 378 0
-242 -244 -257 -378 0
243 245 258 379 0
-243 -245 -258 -379 0
244 246 259 380 0
-244 -246 -259 -380 0
247 249 260 381 0
-247 -249 -260 -381 0
248 250 261 382 0
-248 -250 -261 -382 0
249 251 262 383 0
-249 -251 -262 -383 0
250 252 263 384 0
-250 -252 -263 -384 0
251 253 264 385 0
-251 -253 -264 -385 0
254 256 265 386 0
-254 -256 -265 -386 0
255 257 266 387 0
-255 -257 -266 -387 0
256 258 267 388 0
-256 -258 -267 -388 0
257 259 268 389 0
-257 -259 -268 -389 0
260 262 269 390 0
-260 -262 -269 -390 0
261 263 270 391 0
-261 -263 -270 -391 0
262 264 271 392 0
-262 -264 -271 -392 0
265 267 272 393 0
-265 -267 -272 -393 0
266 268 273 394 0
-266 -268 -273 -394 0
269 271 274 395 0
-269 -271 -274 -395 0
275 277 296 396 0
-275 -277 -296 -396 0
276 278 297 397 0
-276 -278 -297 -397 0
277 279 298 398 0
-277 -279 -298 -398 0
278 280 299 399 0
-278 -280 -299 -399 0
279 281 300 400 0
-279 -281 -300 -400 0
280 282 301 401 0
-280 -282 -301 -401 0
281 283 302 402 0
-281 -283 -302 -402 0
282 284 303 403 0
-282 -284 -303 -403 0
283 285 304 404 0
-283 -285 -304 -404 0
286 288 305 405 0
-286 -288 -305 -405 0
287 289 306 406 0
-287 -289 -306 -406 0
288 290 307 407 0
-288 -290 -307 -407 0
289 291 308 408 0
-289 -291 -308 -408 0
290 292 309 409 0
-290 -292 -309 -409 0
291 293 310 410 0
-291 -293 -310 -410 0
292 294 311 411 0
-292 -294 -311 -411 0
293 295 312 412 0
-293 -295 -312 -412 0
296 298 313 413 0
-296 -298 -313 -413 0
297 299 314 414 0
-297 -299 -314 -414 0
298 300 315 415 0
-298 -300 -315 -415 0
299 301 316 416 0
-299 -301 -316 -416 0
300 302 317 417 0
-300 -302 -317 -417 0
301 303 318 418 0
-301 -303 -318 -418 0
302 304 319 419 0
-302 -304 -319 -419 0
305 307 320 420 0
-305 -307 -320 -420 0
306 308 321 421 0
-306 -308 -321 -421 0
307 309 322 422 0
-307 -309 -322 -422 0
308 310 323 423 0
-308 -310 -323 -423 0
309 311 324 424 0
-309 -311 -324 -424 0
310 312 325 425 0
-310 -312 -325 -425 0
313 315 326 426 0
-313 -315 -326 -426 0
314 316 327 427 0
-314 -316 -327 -427 0
315 317 328 428 0
-315 -317 -328 -428 0
316 318 329 429 0
-316 -318 -329 -429 0
317 319 330 430 0
-317 -319 -330 -430 0
320 322 331 431 0
-320 -322 -331 -431 0
321 323 332 432 0
-321 -323 -332 -432 0
322 324 333 433 0
-322 -324 -333 -433 0
323 325 334 434 0
-323 -325 -334 -434 0
326 328 335 435 0
-326 -328 -335 -435 0
327 329 336 436 0
-327 -329 -336 -436 0
328 330 337 437 0
-328 -330 -337 -437 0
331 333 338 438 0
-331 -333 -338 -438 0
332 334 339 439 0
-332 -334 -339 -439 0
335 337 340 440 0
-335 -337 -340 -440 0
341 343 360 441 0
-341 -343 -360 -441 0
342 344 361 442 0
-342 -344 -361 -442 0
343 345 362 443 0
-343 -345 -362 -443 0
344 346 363 444 0
-344 -346 -363 -444 0
345 347 364 445 0
-345 -347 -364 -445 0
346 348 365 446 0
-346 -348 -365 -446 0
347 349 366 447 0
-347 -349 -366 -447 0
348 350 367 448 0
-348 -350 -367 -448 0
351 353 368 449 0
-351 -353 -368 -449 0
352 354 369 450 0
-352 -354 -369 -450 0
353 355 370 451 0
-353 -355 -370 -451 0
354 356 371 452 0
-354 -356 -371 -452 0
355 357 372 453 0
-355 -357 -372 -453 0
356 358 373 454 0
-356 -358 -373 -454 0
357 359 374 455 0
-357 -359 -374 -455 0
360 362 375 456 0
-360 -362 -375 -456 0
361 363 376 457 0
-361 -363 -376 -457 0
362 364 377 458 0
-362 -364 -377 -458 0
363 365 378 459 0
-363 -365 -378 -459 0
364 366 379 460 0
-364 -366 -379 -460 0
365 367 380 461 0
-365 -367 -380 -461 0
368 370 381 462 0
-368 -370 -381 -462 0
369 371 382 463 0
-369 -371 -382 -463 0
370 372 383 464 0
-370 -372 -383 -464 0
371 373 384 465 0
-371 -373 -384 -465 0
372 374 385 466 0
-372 -374 -385 -466 0
375 377 386 467 0
-375 -377 -386 -467 0
376 378 387 468 0
-376 -378 -387 -468 0
377 379 388 469 0
-377 -379 -388 -469 0
378 380 389 470 0
-378 -380 -389 -470 0
381 383 390 471 0
-381 -383 -390 -471 0
382 384 391 472 0
-382 -384 -391 -472 0
383 385 392 473 0
-383 -385 -392 -473 0
386 388 393 474 0
-386 -388 -393 -474 0
387 389 394 475 0
-387 -389 -394 -475 0
390 392 395 476 0
-390 -392 -395 -476 0
396 398 413 477 0
-396 -398 -413 -477 0
397 399 414 478 0
-397 -399 -414 -478 0
398 400 415 479 0
-398 -400 -415 -479 0
399 401 416 480 0
-399 -401 -416 -480 0
400 402 417 481 0
-400 -402 -417 -481 0
401 403 418 482 0
-401 -403 -418 -482 0
402 404 419 483 0
-402 -404 -419 -483 0
405 407 420 484 0
-405 -407 -420 -484 0
406 408 421 485 0
-406 -408 -421 -485 0
407 409 422 486 0
-407 -409 -422 -486 0
408 410 423 487 0
-408 -410 -423 -487 0
409 411 424 488 0
-409 -411 -424 -488 0
410 412 425 489 0
-410 -412 -425 -489 0
413 415 426 490 0
-413 -415 -426 -490 0
414 416 427 491 0
-414 -416 -427 -491 0
415 417 428 492 0
-415 -417 -428 -492 0
416 418 429 493 0
-416 -418 -429 -493 0
417 419 430 494 0
-417 -419 -430 -494 0
420 422 431 495 0
-420 -422 -431 -495 0
421 423 432 496 0
-421 -423 -432 -496 0
422 424 433 497 0
-422 -424 -433 -497 0
423 425 434 498 0
-423 -425 -434 -498 0
426 428 435 499 0
-426 -428 -435 -499 0
427 429 436 500 0
-427 -429 -436 -500 0
428 430 437 501 0
-428 -430 -437 -501 0
431 433 438 502 0
-431 -433 -438 -502 0
432 434 439 503 0
-432 -434 -439 -503 0
435 437 440 504 0
-435 -437 -440 -504 0
441 443 456 505 0
-441 -443 -456 -505 0
442 444 457 506 0
-442 -444 -457 -506 0
443 445 458 507 0
-443 -445 -458 -507 0
444 446 459 508 0
-444 -446 -459 -508 0
445 447 460 509 0
-445 -447 -460 -509 0
446 448 461 510 0
-446 -448 -461 -510 0
449 451 462 511 0
-449 -451 -462 -511 0
450 452 463 512 0
-450 -452 -463 -512 0
451 453 464 513 0
-451 -453 -464 -513 0
452 454 465 514 0
-452 -454 -465 -514 0
453 455 466 515 0
-453 -455 -466 -515 0
456 458 467 516 0
-456 -458 -467 -516 0
457 459 468 517 0
-457 -459 -468 -517 0
458 460 469 518 0
-458 -460 -469 -518 0
459 461 470 519 0
-459 -461 -470 -519 0
462 464 471 520 0
-462 -464 -471 -520 0
463 465 472 521 0
-463 -465 -472 -521 0
464 466 473 522 0
-464 -466 -473 -522 0
467 469 474 523 0
-467 -469 -474 -523 0
468 470 475 524 0
-468 -470 -475 -524 0
471 473 476 525 0
-471 -473 -476 -525 0
477 479 490 526 0
-477 -479 -490 -526 0
478 480 491 527 0
-478 -480 -491 -527 0
479 481 492 528 0
-479 -481 -492 -528 0
480 482 493 529 0
-480 -482 -493 -529 0
481 483 494 530 0
-481 -483 -494 -530 0
484 486 495 531 0
-484 -486 -495 -531 0
485 487 496 532 0
-485 -487 -496 -532 0
486 488 497 533 0
-486 -488 -497 -533 0
487 489 498 534 0
-487 -489 -498 -534 0
490 492 499 535 0
-490 -492 -499 -535 0
491 493 500 536 0
-491 -493 -500 -536 0
492 494 501 537 0
-492 -494 -501 -537 0
495 497 502 538 0
-495 -497 -502 -538 0
496 498 503 539 0
-496 -498 -503 -539 0
499 501 504 540 0
-499 -501 -504 -540 0
505 507 516 541 0
-505 -507 -516 -541 0
506 508 517 542 0
-506 -508 -517 -542 0
507 509 518 543 0
-507 -509 -518 -543 0
508 510 519 544 0
-508 -510 -519 -544 0
511 513 520 545 0
-511 -513 -520 -545 0
512 514 521 546 0
-512 -514 -521 -546 0
513 515 522 547 0
-513 -515 -522 -547 0
516 518 523 548 0
-516 -518 -523 -548 0
517 519 524 549 0
-517 -519 -524 -549 0
520 522 525 550 0
-520 -522 -525 -550 0
526 528 535 551 0
-526 -528 -535 -551 0
527 529 536 552 0
-527 -529 -536 -552 0
528 530 537 553 0
-528 -530 -537 -553 0
531 533 538 554 0
-531 -533 -538 -554 0
532 534 539 555 0
-532 -534 -539 -555 0
535 537 540 556 0
-535 -537 -540 -556 0
541 543 548 557 0
-541 -543 -548 -557 0
542 544 549 558 0
-542 -544 -549 -558 0
545 547 550 559 0
-545 -547 -550 -559 0
551 553 556 560 0
-551 -553 -556 -560 0
4 10 66 275 0
-4 -10 -66 -275 0
3 13 68 276 0
-3 -13 -68 -276 0
7 16 70 277 0
-7 -16 -70 -277 0
10 19 72 278 0
-10 -19 -72 -278 0
13 22 74 279 0
-13 -22 -74 -279 0
16 25 76 280 0
-16 -25 -76 -280 0
19 28 78 281 0
-19 -28 -78 -281 0
22 31 80 282 0
-22 -31 -80 -282 0
25 34 82 283 0
-25 -34 -82 -283 0
28 37 84 284 0
-28 -37 -84 -284 0
31 40 86 285 0
-31 -40 -86 -285 0
2 12 88 286 0
-2 -12 -88 -286 0
6 15 90 287 0
-6 -15 -90 -287 0
9 18 92 288 0
-9 -18 -92 -288 0
12 21 94 289 0
-12 -21 -94 -289 0
15 24 96 290 0
-15 -24 -96 -290 0
18 27 98 291 0
-18 -27 -98 -291 0
21 30 100 292 0
-21 -30 -100 -292 0
24 33 102 293 0
-24 -33 -102 -293 0
27 36 104 294 0
-27 -36 -104 -294 0
30 39 106 295 0
-30 -39 -106 -295 0
42 48 108 296 0
-42 -48 -108 -296 0
44 50 110 297 0
-44 -50 -110 -297 0
46 52 112 298 0
-46 -52 -112 -298 0
48 54 114 299 0
-48 -54 -114 -299 0
50 56 116 300 0
-50 -56 -116 -300 0
52 58 118 301 0
-52 -58 -118 -301 0
54 60 120 302 0
-54 -60 -120 -302 0
56 62 122 303 0
-56 -62 -122 -303 0
58 64 124 304 0
-58 -64 -124 -304 0
66 72 126 305 0
-66 -72 -126 -305 0
68 74 128 306 0
-68 -74 -128 -306 0
70 76 130 307 0
-70 -76 -130 -307 0
72 78 132 308 0
-72 -78 -132 -308 0
74 80 134 309 0
-74 -80 -134 -309 0
76 82 136 310 0
-76 -82 -136 -310 0
78 84 138 311 0
-78 -84 -138 -311 0
80 86 140 312 0
-80 -86 -140 -312 0
88 94 142 313 0
-88 -94 -142 -313 0
90 96 144 314 0
-90 -96 -144 -314 0
92 98 146 315 0
-92 -98 -146 -315 0
94 100 148 316 0
-94 -100 -148 -316 0
96 102 150 317 0
-96 -102 -150 -317 0
98 104 152 318 0
-98 -104 -152 -318 0
100 106 154 319 0
-100 -106 -154 -319 0
108 114 156 320 0
-108 -114 -156 -320 0
110 116 158 321 0
-110 -116 -158 -321 0
112 118 160 322 0
-112 -118 -160 -322 0
114 120 162 323 0
-114 -120 -162 -323 0
116 122 164 324 0
-116 -122 -164 -324 0
118 124 166 325 0
-118 -124 -166 -325 0
126 132 168 326 0
-126 -132 -168 -326 0
128 134 170 327 0
-128 -134 -170 -327 0
130 136 172 328 0
-130 -136 -172 -328 0
132 138 174 329 0
-132 -138 -174 -329 0
134 140 176 330 0
-134 -140 -176 -330 0
142 148 178 331 0
-142 -148 -178 -331 0
144 150 180 332 0
-144 -150 -180 -332 0
146 152 182 333 0
-146 -152 -182 -333 0
148 154 184 334 0
-148 -154 -184 -334 0
156 162 186 335 0
-156 -162 -186 -335 0
158 164 188 336 0
-158 -164 -188 -336 0
160 166 190 337 0
-160 -166 -190 -337 0
168 174 192 338 0
-168 -174 -192 -338 0
170 176 194 339 0
-170 -176 -194 -339 0
178 184 196 340 0
-178 -184 -196 -340 0
1 11 87 341 0
-1 -11 -87 -341 0
5 14 89 342 0
-5 -14 -89 -342 0
8 17 91 343 0
-8 -17 -91 -343 0
11 20 93 344 0
-11 -20 -93 -344 0
14 23 95 345 0
-14 -23 -95 -345 0
17 26 97 346 0
-17 -26 -97 -346 0
20 29 99 347 0
-20 -29 -99 -347 0
23 32 101 348 0
-23 -32 -101 -348 0
26 35 103 349 0
-26 -35 -103 -349 0
29 38 105 350 0
-29 -38 -105 -350 0
41 47 107 351 0
-41 -47 -107 -351 0
43 49 109 352 0
-43 -49 -109 -352 0
45 51 111 353 0
-45 -51 -111 -353 0
47 53 113 354 0
-47 -53 -113 -354 0
49 55 115 355 0
-49 -55 -115 -355 0
51 57 117 356 0
-51 -57 -117 -356 0
53 59 119 357 0
-53 -59 -119 -357 0
55 61 121 358 0
-55 -61 -121 -358 0
57 63 123 359 0
-57 -63 -123 -359 0
65 71 125 360 0
-65 -71 -125 -360 0
67 73 127 361 0
-67 -73 -127 -361 0
69 75 129 362 0
-69 -75 -129 -362 0
71 77 131 363 0
-71 -77 -131 -363 0
73 79 133 364 0
-73 -79 -133 -364 0
75 81 135 365 0
-75 -81 -135 -365 0
77 83 137 366 0
-77 -83 -137 -366 0
79 85 139 367 0
-79 -85 -139 -367 0
87 93 141 368 0
-87 -93 -141 -368 0
89 95 143 369 0
-89 -95 -143 -369 0
91 97 145 370 0
-91 -97 -145 -370 0
93 99 147 371 0
-93 -99 -147 -371 0
95 101 149 372 0
-95 -101 -149 -372 0
97 103 151 373 0
-97 -103 -151 -373 0
99 105 153 374 0
-99 -105 -153 -374 0
107 113 155 375 0
-107 -113 -155 -375 0
109 115 157 376 0
-109 -115 -157 -376 0
111 117 159 377 0
-111 -117 -159 -377 0
113 119 161 378 0
-113 -119 -161 -378 0
115 121 163 379 0
-115 -121 -163 -379 0
117 123 165 380 0
-117 -123 -165 -380 0
125 131 167 381 0
-125 -131 -167 -381 0
127 133 169 382 0
-127 -133 -169 -382 0
129 135 171 383 0
-129 -135 -171 -383 0
131 137 173 384 0
-131 -137 -173 -384 0
133 139 175 385 0
-133 -139 -175 -385 0
141 147 177 386 0
-141 -147 -177 -386 0
143 149 179 387 0
-143 -149 -179 -387 0
145 151 181 388 0
-145 -151 -181 -388 0
147 153 183 389 0
-147 -153 -183 -389 0
155 161 185 390 0
-155 -161 -185 -390 0
157 163 187 391 0
-157 -163 -187 -391 0
159 165 189 392 0
-159 -165 -189 -392 0
167 173 191 393 0
-167 -173 -191 -393 0
169 175 193 394 0
-169 -175 -193 -394 0
177 183 195 395 0
-177 -183 -195 -395 0
197 200 230 396 0
-197 -200 -230 -396 0
198 201 231 397 0
-198 -201 -231 -397 0
199 202 232 398 0
-199 -202 -232 -398 0
200 203 233 399 0
-200 -203 -233 -399 0
201 204 234 400 0
-201 -204 -234 -400 0
202 205 235 401 0
-202 -205 -235 -401 0
203 206 236 402 0
-203 -206 -236 -402 0
204 207 237 403 0
-204 -207 -237 -403 0
205 208 238 404 0
-205 -208 -238 -404 0
209 212 239 405 0
-209 -212 -239 -405 0
210 213 240 406 0
-210 -213 -240 -406 0
211 214 241 407 0
-211 -214 -241 -407 0
212 215 242 408 0
-212 -215 -242 -408 0
213 216 243 409 0
-213 -216 -243 -409 0
214 217 244 410 0
-214 -217 -244 -410 0
215 218 245 411 0
-215 -218 -245 -411 0
216 219 246 412 0
-216 -219 -246 -412 0
220 223 247 413 0
-220 -223 -247 -413 0
221 224 248 414 0
-221 -224 -248 -414 0
222 225 249 415 0
-222 -225 -249 -415 0
223 226 250 416 0
-223 -226 -250 -416 0
224 227 251 417 0
-224 -227 -251 -417 0
225 228 252 418 0
-225 -228 -252 -418 0
226 229 253 419 0
-226 -229 -253 -419 0
230 233 254 420 0
-230 -233 -254 -420 0
231 234 255 421 0
-231 -234 -255 -421 0
232 235 256 422 0
-232 -235 -256 -422 0
233 236 257 423 0
-233 -236 -257 -423 0
234 237 258 424 0
-234 -237 -258 -424 0
235 238 259 425 0
-235 -238 -259 -425 0
239 242 260 426 0
-239 -242 -260 -426 0
240 243 261 427 0
-240 -243 -261 -427 0
241 244 262 428 0
-241 -244 -262 -428 0
242 245 263 429 0
-242 -245 -263 -429 0
243 246 264 430 0
-243 -246 -264 -430 0
247 250 265 431 0
-247 -250 -265 -431 0
248 251 266 432 0
-248 -251 -266 -432 0
249 252 267 433 0
-249 -252 -267 -433 0
250 253 268 434 0
-250 -253 -268 -434 0
254 257 269 435 0
-254 -257 -269 -435 0
255 258 270 436 0
-255 -258 -270 -436 0
256 259 271 437 0
-256 -259 -271 -437 0
260 263 272 438 0
-260 -263 -272 -438 0
261 264 273 439 0
-261 -264 -273 -439 0
265 268 274 440 0
-265 -268 -274 -440 0
275 278 305 441 0
-275 -278 -305 -441 0
276 279 306 442 0
-276 -279 -306 -442 0
277 280 307 443 0
-277 -280 -307 -443 0
278 281 308 444 0
-278 -281 -308 -444 0
279 282 309 445 0
-279 -282 -309 -445 0
280 283 310 446 0
-280 -283 -310 -446 0
281 284 311 447 0
-281 -284 -311 -447 0
282 285 312 448 0
-282 -285 -312 -448 0
286 289 313 449 0
-286 -289 -313 -449 0
287 290 314 450 0
-287 -290 -314 -450 0
288 291 315 451 0
-288 -291 -315 -451 0
289 292 316 452 0
-289 -292 -316 -452 0
290 293 317 453 0
-290 -293 -317 -453 0
291 294 318 454 0
-291 -294 -318 -454 0
292 295 319 455 0
-292 -295 -319 -455 0
296 299 320 456 0
-296 -299 -320 -456 0
297 300 321 457 0
-297 -300 -321 -457 0
298 301 322 458 0
-298 -301 -322 -458 0
299 302 323 459 0
-299 -302 -323 -459 0
300 303 324 460 0
-300 -303 -324 -460 0
301 304 325 461 0
-301 -304 -325 -461 0
305 308 326 462 0
-305 -308 -326 -462 0
306 309 327 463 0
-306 -309 -327 -463 0
307 310 328 464 0
-307 -310 -328 -464 0
308 311 329 465 0
-308 -311 -329 -465 0
309 312 330 466 0
-309 -312 -330 -466 0
313 316 331 467 0
-313 -316 -331 -467 0
314 317 332 468 0
-314 -317 -332 -468 0
315 318 333 469 0
-315 -318 -333 -469 0
316 319 334 470 0
-316 -319 -334 -470 0
320 323 335 471 0
-320 -323 -335 -471 0
321 324 336 472 0
-321 -324 -336 -472 0
322 325 337 473 0
-322 -325 -337 -473 0
326 329 338 474 0
-326 -329 -338 -474 0
327 330 339 475 0
-327 -330 -339 -475 0
331 334 340 476 0
-331 -334 -340 -476 0
341 344 368 477 0
-341 -344 -368 -477 0
342 345 369 478 0
-342 -345 -369 -478 0
343 346 370 479 0
-343 -346 -370 -479 0
344 347 371 480 0
-344 -347 -371 -480 0
345 348 372 481 0
-345 -348 -372 -481 0
346 349 373 482 0
-346 -349 -373 -482 0
347 350 374 483 0
-347 -350 -374 -483 0
351 354 375 484 0
-351 -354 -375 -484 0
352 355 376 485 0
-352 -355 -376 -485 0
353 356 377 486 0
-353 -356 -377 -486 0
354 357 378 487 0
-354 -357 -378 -487 0
355 358 379 488 0
-355 -358 -379 -488 0
356 359 380 489 0
-356 -359 -380 -489 0
360 363 381 490 0
-360 -363 -381 -490 0
361 364 382 491 0
-361 -364 -382 -491 0
362 365 383 492 0
-362 -365 -383 -492 0
363 366 384 493 0
-363 -366 -384 -493 0
364 367 385 494 0
-364 -367 -385 -494 0
368 371 386 495 0
-368 -371 -386 -495 0
369 372 387 496 0
-369 -372 -387 -496 0
370 373 388 497 0
-370 -373 -388 -497 0
371 374 389 498 0
-371 -374 -389 -498 0
375 378 390 499 0
-375 -378 -390 -499 0
376 379 391 500 0
-376 -379 -391 -500 0
377 380 392 501 0
-377 -380 -392 -501 0
381 384 393 502 0
-381 -384 -393 -502 0
382 385 394 503 0
-382 -385 -394 -503 0
386 389 395 504 0
-386 -389 -395 -504 0
396 399 420 505 0
-396 -399 -420 -505 0
397 400 421 506 0
-397 -400 -421 -506 0
398 401 422 507 0
-398 -401 -422 -507 0
399 402 423 508 0
-399 -402 -423 -508 0
400 403 424 509 0
-400 -403 -424 -509 0
401 404 425 510 0
-401 -404 -425 -510 0
405 408 426 511 0
-405 -408 -426 -511 0
406 409 427 512 0
-406 -409 -427 -512 0
407 410 428 513 0
-407 -410 -428 -513 0
408 411 429 514 0
-408 -411 -429 -514 0
409 412 430 515 0
-409 -412 -430 -515 0
413 416 431 516 0
-413 -416 -431 -516 0
414 417 432 517 0
-414 -417 -432 -517 0
415 418 433 518 0
-415 -418 -433 -518 0
416 419 434 519 0
-416 -419 -434 -519 0
420 423 435 520 0
-420 -423 -435 -520 0
421 424 436 521 0
-421 -424 -436 -521 0
422 425 437 522 0
-422 -425 -437 -522 0
426 429 438 523 0
-426 -429 -438 -523 0
427 430 439 524 0
-427 -430 -439 -524 0
431 434 440 525 0
-431 -434 -440 -525 0
441 444 462 526 0
-441 -444 -462 -526 0
442 445 463 527 0
-442 -445 -463 -527 0
443 446 464 528 0
-443 -446 -464 -528 0
444 447 465 529 0
-444 -447 -465 -529 0
445 448 466 530 0
-445 -448 -466 -530 0
449 452 467 531 0
-449 -452 -467 -531 0
450 453 468 532 0
-450 -453 -468 -532 0
451 454 469 533 0
-451 -454 -469 -533 0
452 455 470 534 0
-452 -455 -470 -534 0
456 459 471 535 0
-456 -459 -471 -535 0
457 460 472 536 0
-457 -460 -472 -536 0
458 461 473 537 0
-458 -461 -473 -537 0
462 465 474 538 0
-462 -465 -474 -538 0
463 466 475 539 0
-463 -466 -475 -539 0
467 470 476 540 0
-467 -470 -476 -540 0
477 480 495 541 0
-477 -480 -495 -541 0
478 481 496 542 0
-478 -481 -496 -542 0
479 482 497 543 0
-479 -482 -497 -543 0
480 483 498 544 0
-480 -483 -498 -544 0
484 487 499 545 0
-484 -487 -499 -545 0
485 488 500 546 0
-485 -488 -500 -546 0
486 489 501 547 0
-486 -489 -501 -547 0
490 493 502 548 0
-490 -493 -502 -548 0
491 494 503 549 0
-491 -494 -503 -549 0
495 498 504 550 0
-495 -498 -504 -550 0
505 508 520 551 0
-505 -508 -520 -551 0
506 509 521 552 0
-506 -509 -521 -552 0
507 510 522 553 0
-507 -510 -522 -553 0
511 514 523 554 0
-511 -514 -523 -554 0
512 515 524 555 0
-512 -515 -524 -555 0
516 519 525 556 0
-516 -519 -525 -556 0
526 529 538 557 0
-526 -529 -538 -557 0
527 530 539 558 0
-527 -530 -539 -558 0
531 534 540 559 0
-531 -534 -540 -559 0
541 544 550 560 0
-541 -544 -550 -560 0
4 13 88 341 0
-4 -13 -88 -341 0
3 16 90 342 0
-3 -16 -90 -342 0
7 19 92 343 0
-7 -19 -92 -343 0
10 22 94 344 0
-10 -22 -94 -344 0
13 25 96 345 0
-13 -25 -96 -345 0
16 28 98 346 0
-16 -28 -98 -346 0
19 31 100 347 0
-19 -31 -100 -347 0
22 34 102 348 0
-22 -34 -102 -348 0
25 37 104 349 0
-25 -37 -104 -349 0
28 40 106 350 0
-28 -40 -106 -350 0
2 15 108 351 0
-2 -15 -108 -351 0
6 18 110 352 0
-6 -18 -110 -352 0
9 21 112 353 0
-9 -21 -112 -353 0
12 24 114 354 0
-12 -24 -114 -354 0
15 27 116 355 0
-15 -27 -116 -355 0
18 30 118 356 0
-18 -30 -118 -356 0
21 33 120 357 0
-21 -33 -120 -357 0
24 36 122 358 0
-24 -36 -122 -358 0
27 39 124 359 0
-27 -39 -124 -359 0
42 50 126 360 0
-42 -50 -126 -360 0
44 52 128 361 0
-44 -52 -128 -361 0
46 54 130 362 0
-46 -54 -130 -362 0
48 56 132 363 0
-48 -56 -132 -363 0
50 58 134 364 0
-50 -58 -134 -364 0
52 60 136 365 0
-52 -60 -136 -365 0
54 62 138 366 0
-54 -62 -138 -366 0
56 64 140 367 0
-56 -64 -140 -367 0
66 74 142 368 0
-66 -74 -142 -368 0
68 76 144 369 0
-68 -76 -144 -369 0
70 78 146 370 0
-70 -78 -146 -370 0
72 80 148 371 0
-72 -80 -148 -371 0
74 82 150 372 0
-74 -82 -150 -372 0
76 84 152 373 0
-76 -84 -152 -373 0
78 86 154 374 0
-78 -86 -154 -374 0
88 96 156 375 0
-88 -96 -156 -375 0
90 98 158 376 0
-90 -98 -158 -376 0
92 100 160 377 0
-92 -100 -160 -377 0
94 102 162 378 0
-94 -102 -162 -378 0
96 104 164 379 0
-96 -104 -164 -379 0
98 106 166 380 0
-98 -106 -166 -380 0
108 116 168 381 0
-108 -116 -168 -381 0
110 118 170 382 0
-110 -118 -170 -382 0
112 120 172 383 0
-112 -120 -172 -383 0
114 122 174 384 0
-114 -122 -174 -384 0
116 124 176 385 0
-116 -124 -176 -385 0
126 134 178 386 0
-126 -134 -178 -386 0
128 136 180 387 0
-128 -136 -180 -387 0
130 138 182 388 0
-130 -138 -182 -388 0
132 140 184 389 0
-132 -140 -184 -389 0
142 150 186 390 0
-142 -150 -186 -390 0
144 152 188 391 0
-144 -152 -188 -391 0
146 154 190 392 0
-146 -154 -190 -392 0
156 164 192 393 0
-156 -164 -192 -393 0
158 166 194 394 0
-158 -166 -194 -394 0
168 176 196 395 0
-168 -176 -196 -395 0
1 14 107 396 0
-1 -14 -107 -396 0
5 17 109 397 0
-5 -17 -109 -397 0
8 20 111 398 0
-8 -20 -111 -398 0
11 23 113 399 0
-11 -23 -113 -399 0
14 26 115 400 0
-14 -26 -115 -400 0
17 29 117 401 0
-17 -29 -117 -401 0
20 32 119 402 0
-20 -32 -119 -402 0
23 35 121 403 0
-23 -35 -121 -403 0
26 38 123 404 0
-26 -38 -123 -404 0
41 49 125 405 0
-41 -49 -125 -405 0
43 51 127 406 0
-43 -51 -127 -406 0
45 53 129 407 0
-45 -53 -129 -407 0
47 55 131 408 0
-47 -55 -131 -408 0
49 57 133 409 0
-49 -57 -133 -409 0
51 59 135 410 0
-51 -59 -135 -410 0
53 61 137 411 0
-53 -61 -137 -411 0
55 63 139 412 0
-55 -63 -139 -412 0
65 73 141 413 0
-65 -73 -141 -413 0
67 75 143 414 0
-67 -75 -143 -414 0
69 77 145 415 0
-69 -77 -145 -415 0
71 79 147 416 0
-71 -79 -147 -416 0
73 81 149 417 0
-73 -81 -149 -417 0
75 83 151 418 0
-75 -83 -151 -418 0
77 85 153 419 0
-77 -85 -153 -419 0
87 95 155 420 0
-87 -95 -155 -420 0
89 97 157 421 0
-89 -97 -157 -421 0
91 99 159 422 0
-91 -99 -159 -422 0
93 101 161 423 0
-93 -101 -161 -423 0
95 103 163 424 0
-95 -103 -163 -424 0
97 105 165 425 0
-97 -105 -165 -425 0
107 115 167 426 0
-107 -115 -167 -426 0
109 117 169 427 0
-109 -117 -169 -427 0
111 119 171 428 0
-111 -119 -171 -428 0
113 121 173 429 0
-113 -121 -173 -429 0
115 123 175 430 0
-115 -123 -175 -430 0
125 133 177 431 0
-125 -133 -177 -431 0
127 135 179 432 0
-127 -135 -179 -432 0
129 137 181 433 0
-129 -137 -181 -433 0
131 139 183 434 0
-131 -139 -183 -434 0
141 149 185 435 0
-141 -149 -185 -435 0
143 151 187 436 0
-143 -151 -187 -436 0
145 153 189 437 0
-145 -153 -189 -437 0
155 163 191 438 0
-155 -163 -191 -438 0
157 165 193 439 0
-157 -165 -193 -439 0
167 175 195 440 0
-167 -175 -195 -440 0
197 201 239 441 0
-197 -201 -239 -441 0
198 202 240 442 0
-198 -202 -240 -442 0
199 203 241 443 0
-199 -203 -241 -443 0
200 204 242 444 0
-200 -204 -242 -444 0
201 205 243 445 0
-201 -205 -243 -445 0
202 206 244 446 0
-202 -206 -244 -446 0
203 207 245 447 0
-203 -207 -245 -447 0
204 208 246 448 0
-204 -208 -246 -448 0
209 213 247 449 0
-209 -213 -247 -449 0
210 214 248 450 0
-210 -214 -248 -450 0
211 215 249 451 0
-211 -215 -249 -451 0
212 216 250 452 0
-212 -216 -250 -452 0
213 217 251 453 0
-213 -217 -251 -453 0
214 218 252 454 0
-214 -218 -252 -454 0
215 219 253 455 0
-215 -219 -253 -455 0
220 224 254 456 0
-220 -224 -254 -456 0
221 225 255 457 0
-221 -225 -255 -457 0
222 226 256 458 0
-222 -226 -256 -458 0
223 227 257 459 0
-223 -227 -257 -459 0
224 228 258 460 0
-224 -228 -258 -460 0
225 229 259 461 0
-225 -229 -259 -461 0
230 234 260 462 0
-230 -234 -260 -462 0
231 235 261 463 0
-231 -235 -261 -463 0
232 236 262 464 0
-232 -236 -262 -464 0
233 237 263 465 0
-233 -237 -263 -465 0
234 238 264 466 0
-234 -238 -264 -466 0
239 243 265 467 0
-239 -243 -265 -467 0
240 244 266 468 0
-240 -244 -266 -468 0
241 245 267 469 0
-241 -245 -267 -469 0
242 246 268 470 0
-242 -246 -268 -470 0
247 251 269 471 0
-247 -251 -269 -471 0
248 252 270 472 0
-248 -252 -270 -472 0
249 253 271 473 0
-249 -253 -271 -473 0
254 258 272 474 0
-254 -258 -272 -474 0
255 259 273 475 0
-255 -259 -273 -475 0
260 264 274 476 0
-260 -264 -274 -476 0
275 279 313 477 0
-275 -279 -313 -477 0
276 280 314 478 0
-276 -280 -314 -478 0
277 281 315 479 0
-277 -281 -315 -479 0
278 282 316 480 0
-278 -282 -316 -480 0
279 283 317 481 0
-279 -283 -317 -481 0
280 284 318 482 0
-280 -284 -318 -482 0
281 285 319 483 0
-281 -285 -319 -483 0
286 290 320 484 0
-286 -290 -320 -484 0
287 291 321 485 0
-287 -291 -321 -485 0
288 292 322 486 0
-288 -292 -322 -486 0
289 293 323 487 0
-289 -293 -323 -487 0
290 294 324 488 0
-290 -294 -324 -488 0
291 295 325 489 0
-291 -295 -325 -489 0
296 300 326 490 0
-296 -300 -326 -490 0
297 301 327 491 0
-297 -301 -327 -491 0
298 302 328 492 0
-298 -302 -328 -492 0
299 303 329 493 0
-299 -303 -329 -493 0
300 304 330 494 0
-300 -304 -330 -494 0
305 309 331 495 0
-305 -309 -331 -495 0
306 310 332 496 0
-306 -310 -332 -496 0
307 311 333 497 0
-307 -311 -333 -497 0
308 312 334 498 0
-308 -312 -334 -498 0
313 317 335 499 0
-313 -317 -335 -499 0
314 318 336 500 0
-314 -318 -336 -500 0
315 319 337 501 0
-315 -319 -337 -501 0
320 324 338 502 0
-320 -324 -338 -502 0
321 325 339 503 0
-321 -325 -339 -503 0
326 330 340 504 0
-326 -330 -340 -504 0
341 345 375 505 0
-341 -345 -375 -505 0
342 346 376 506 0
-342 -346 -376 -506 0
343 347 377 507 0
-343 -347 -377 -507 0
344 348 378 508 0
-344 -348 -378 -508 0
345 349 379 509 0
-345 -349 -379 -509 0
346 350 380 510 0
-346 -350 -380 -510 0
351 355 381 511 0
-351 -355 -381 -511 0
352 356 382 512 0
-352 -356 -382 -512 0
353 357 383 513 0
-353 -357 -383 -513 0
354 358 384 514 0
-354 -358 -384 -514 0
355 359 385 515 0
-355 -359 -385 -515 0
360 364 386 516 0
-360 -364 -386 -516 0
361 365 387 517 0
-361 -365 -387 -517 0
362 366 388 518 0
-362 -366 -388 -518 0
363 367 389 519 0
-363 -367 -389 -519 0
368 372 390 520 0
-368 -372 -390 -520 0
369 373 391 521 0
-369 -373 -391 -521 0
370 374 392 522 0
-370 -374 -392 -522 0
375 379 393 523 0
-375 -379 -393 -523 0
376 380 394 524 0
-376 -380 -394 -524 0
381 385 395 525 0
-381 -385 -395 -525 0
396 400 426 526 0
-396 -400 -426 -526 0
397 401 427 527 0
-397 -401 -427 -527 0
398 402 428 528 0
-398 -402 -428 -528 0
399 403 429 529 0
-399 -403 -429 -529 0
400 404 430 530 0
-400 -404 -430 -530 0
405 409 431 531 0
-405 -409 -431 -531 0
406 410 432 532 0
-406 -410 -432 -532 0
407 411 433 533 0
-407 -411 -433 -533 0
408 412 434 534 0
-408 -412 -434 -534 0
413 417 435 535 0
-413 -417 -435 -535 0
414 418 436 536 0
-414 -418 -436 -536 0
415 419 437 537 0
-415 -419 -437 -537 0
420 424 438 538 0
-420 -424 -438 -538 0
421 425 439 539 0
-421 -425 -439 -539 0
426 430 440 540 0
-426 -430 -440 -540 0
441 445 467 541 0
-441 -445 -467 -541 0
442 446 468 542 0
-442 -446 -468 -542 0
443 447 469 543 0
-443 -447 -469 -543 0
444 448 470 544 0
-444 -448 -470 -544 0
449 453 471 545 0
-449 -453 -471 -545 0
450 454 472 546 0
-450 -454 -472 -546 0
451 455 473 547 0
-451 -455 -473 -547 0
456 460 474 548 0
-456 -460 -474 -548 0
457 461 475 549 0
-457 -461 -475 -549 0
462 466 476 550 0
-462 -466 -476 -550 0
477 481 499 551 0
-477 -481 -499 -551 0
478 482 500 552 0
-478 -482 -500 -552 0
479 483 501 553 0
-479 -483 -501 -553 0
484 488 502 554 0
-484 -488 -502 -554 0
485 489 503 555 0
-485 -489 -503 -555 0
490 494 504 556 0
-490 -494 -504 -556 0
505 509 523 557 0
-505 -509 -523 -557 0
506 510 524 558 0
-506 -510 -524 -558 0
511 515 525 559 0
-511 -515 -525 -559 0
526 530 540 560 0
-526 -530 -540 -560 0
4 16 108 396 0
-4 -16 -108 -396 0
3 19 110 397 0
-3 -19 -110 -397 0
7 22 112 398 0
-7 -22 -112 -398 0
10 25 114 399 0
-10 -25 -114 -399 0
13 28 116 400 0
-13 -28 -116 -400 0
16 31 118 401 0
-16 -31 -118 -401 0
19 34 120 402 0
-19 -34 -120 -402 0
22 37 122 403 0
-22 -37 -122 -403 0
25 40 124 404 0
-25 -40 -124 -404 0
2 18 126 405 0
-2 -18 -126 -405 0
6 21 128 406 0
-6 -21 -128 -406 0
9 24 130 407 0
-9 -24 -130 -407 0
12 27 132 408 0
-12 -27 -132 -408 0
15 30 134 409 0
-15 -30 -134 -409 0
18 33 136 410 0
-18 -33 -136 -410 0
21 36 138 411 0
-21 -36 -138 -411 0
24 39 140 412 0
-24 -39 -140 -412 0
42 52 142 413 0
-42 -52 -142 -413 0
44 54 144 414 0
-44 -54 -144 -414 0
46 56 146 415 0
-46 -56 -146 -415 0
48 58 148 416 0
-48 -58 -148 -416 0
50 60 150 417 0
-50 -60 -150 -417 0
52 62 152 418 0
-52 -62 -152 -418 0
54 64 154 419 0
-54 -64 -154 -419 0
66 76 156 420 0
-66 -76 -156 -420 0
68 78 158 421 0
-68 -78 -158 -421 0
70 80 160 422 0
-70 -80 -160 -422 0
72 82 162 423 0
-72 -82 -162 -423 0
74 84 164 424 0
-74 -84 -164 -424 0
76 86 166 425 0
-76 -86 -166 -425 0
88 98 168 426 0
-88 -98 -168 -426 0
90 100 170 427 0
-90 -100 -170 -427 0
92 102 172 428 0
-92 -102 -172 -428 0
94 104 174 429 0
-94 -104 -174 -429 0
96 106 176 430 0
-96 -106 -176 -430 0
108 118 178 431 0
-108 -118 -178 -431 0
110 120 180 432 0
-110 -120 -180 -432 0
112 122 182 433 0
-112 -122 -182 -433 0
114 124 184 434 0
-114 -124 -184 -434 0
126 136 186 435 0
-126 -136 -186 -435 0
128 138 188 436 0
-128 -138 -188 -436 0
130 140 190 437 0
-130 -140 -190 -437 0
142 152 192 438 0
-142 -152 -192 -438 0
144 154 194 439 0
-144 -154 -194 -439 0
156 166 196 440 0
-156 -166 -196 -440 0
1 17 125 441 0
-1 -17 -125 -441 0
5 20 127 442 0
-5 -20 -127 -442 0
8 23 129 443 0
-8 -23 -129 -443 0
11 26 131 444 0
-11 -26 -131 -444 0
14 29 133 445 0
-14 -29 -133 -445 0
17 32 135 446 0
-17 -32 -135 -446 0
20 35 137 447 0
-20 -35 -137 -447 0
23 38 139 448 0
-23 -38 -139 -448 0
41 51 141 449 0
-41 -51 -141 -449 0
43 53 143 450 0
-43 -53 -143 -450 0
45 55 145 451 0
-45 -55 -145 -451 0
47 57 147 452 0
-47 -57 -147 -452 0
49 59 149 453 0
-49 -59 -149 -453 0
51 61 151 454 0
-51 -61 -151 -454 0
53 63 153 455 0
-53 -63 -153 -455 0
65 75 155 456 0
-65 -75 -155 -456 0
67 77 157 457 0
-67 -77 -157 -457 0
69 79 159 458 0
-69 -79 -159 -458 0
71 81 161 459 0
-71 -81 -161 -459 0
73 83 163 460 0
-73 -83 -163 -460 0
75 85 165 461 0
-75 -85 -165 -461 0
87 97 167 462 0
-87 -97 -167 -462 0
89 99 169 463 0
-89 -99 -169 -463 0
91 101 171 464 0
-91 -101 -171 -464 0
93 103 173 465 0
-93 -103 -173 -465 0
95 105 175 466 0
-95 -105 -175 -466 0
107 117 177 467 0
-107 -117 -177 -467 0
109 119 179 468 0
-109 -119 -179 -468 0
111 121 181 469 0
-111 -121 -181 -469 0
113 123 183 470 0
-113 -123 -183 -470 0
125 135 185 471 0
-125 -135 -185 -471 0
127 137 187 472 0
-127 -137 -187 -472 0
129 139 189 473 0
-129 -139 -189 -473 0
141 151 191 474 0
-141 -151 -191 -474 0
143 153 193 475 0
-143 -153 -193 -475 0
155 165 195 476 0
-155 -165 -195 -476 0
197 202 247 477 0
-197 -202 -247 -477 0
198 203 248 478 0
-198 -203 -248 -478 0
199 204 249 479 0
-199 -204 -249 -479 0
200 205 250 480 0
-200 -205 -250 -480 0
201 206 251 481 0
-201 -206 -251 -481 0
202 207 252 482 0
-202 -207 -252 -482 0
203 208 253 483 0
-203 -208 -253 -483 0
209 214 254 484 0
-209 -214 -254 -484 0
210 215 255 485 0
-210 -215 -255 -485 0
211 216 256 486 0
-211 -216 -256 -486 0
212 217 257 487 0
-212 -217 -257 -487 0
213 218 258 488 0
-213 -218 -258 -488 0
214 219 259 489 0
-214 -219 -259 -489 0
220 225 260 490 0
-220 -225 -260 -490 0
221 226 261 491 0
-221 -226 -261 -491 0
222 227 262 492 0
-222 -227 -262 -492 0
223 228 263 493 0
-223 -228 -263 -493 0
224 229 264 494 0
-224 -229 -264 -494 0
230 235 265 495 0
-230 -235 -265 -495 0
231 236 266 496 0
-231 -236 -266 -496 0
232 237 267 497 0
-232 -237 -267 -497 0
233 238 268 498 0
-233 -238 -268 -498 0
239 244 269 499 0
-239 -244 -269 -499 0
240 245 270 500 0
-240 -245 -270 -500 0
241 246 271 501 0
-241 -246 -271 -501 0
247 252 272 502 0
-247 -252 -272 -502 0
248 253 273 503 0
-248 -253 -273 -503 0
254 259 274 504 0
-254 -259 -274 -504 0
275 280 320 505 0
-275 -280 -320 -505 0
276 281 321 506 0
-276 -281 -321 -506 0
277 282 322 507 0
-277 -282 -322 -507 0
278 283 323 508 0
-278 -283 -323 -508 0
279 284 324 509 0
-279 -284 -324 -509 0
280 285 325 510 0
-280 -285 -325 -510 0
286 291 326 511 0
-286 -291 -326 -511 0
287 292 327 512 0
-287 -292 -327 -512 0
288 293 328 513 0
-288 -293 -328 -513 0
289 294 329 514 0
-289 -294 -329 -514 0
290 295 330 515 0
-290 -295 -330 -515 0
296 301 331 516 0
-296 -301 -331 -516 0
297 302 332 517 0
-297 -302 -332 -517 0
298 303 333 518 0
-298 -303 -333 -518 0
299 304 334 519 0
-299 -304 -334 -519 0
305 310 335 520 0
-305 -310 -335 -520 0
306 311 336 521 0
-306 -311 -336 -521 0
307 312 337 522 0
-307 -312 -337 -522 0
313 318 338 523 0
-313 -318 -338 -523 0
314 319 339 524 0
-314 -319 -339 -524 0
320 325 340 525 0
-320 -325 -340 -525 0
341 346 381 526 0
-341 -346 -381 -526 0
342 347 382 527 0
-342 -347 -382 -527 0
343 348 383 528 0
-343 -348 -383 -528 0
344 349 384 529 0
-344 -349 -384 -529 0
345 350 385 530 0
-345 -350 -385 -530 0
351 356 386 531 0
-351 -356 -386 -531 0
352 357 387 532 0
-352 -357 -387 -532 0
353 358 388 533 0
-353 -358 -388 -533 0
354 359 389 534 0
-354 -359 -389 -534 0
360 365 390 535 0
-360 -365 -390 -535 0
361 366 391 536 0
-361 -366 -391 -536 0
362 367 392 537 0
-362 -367 -392 -537 0
368 373 393 538 0
-368 -373 -393 -538 0
369 374 394 539 0
-369 -374 -394 -539 0
375 380 395 540 0
-375 -380 -395 -540 0
396 401 431 541 0
-396 -401 -431 -541 0
397 402 432 542 0
-397 -402 -432 -542 0
398 403 433 543 0
-398 -403 -433 -543 0
399 404 434 544 0
-399 -404 -434 -544 0
405 410 435 545 0
-405 -410 -435 -545 0
406 411 436 546 0
-406 -411 -436 -546 0
407 412 437 547 0
-407 -412 -437 -547 0
413 418 438 548 0
-413 -418 -438 -548 0
414 419 439 549 0
-414 -419 -439 -549 0
420 425 440 550 0
-420 -425 -440 -550 0
441 446 471 551 0
-441 -446 -471 -551 0
442 447 472 552 0
-442 -447 -472 -552 0
443 448 473 553 0
-443 -448 -473 -553 0
449 454 474 554 0
-449 -454 -474 -554 0
450 455 475 555 0
-450 -455 -475 -555 0
456 461 476 556 0
-456 -461 -476 -556 0
477 482 502 557 0
-477 -482 -502 -557 0
478 483 503 558 0
-478 -483 -503 -558 0
484 489 504 559 0
-484 -489 -504 -559 0
505 510 525 560 0
-505 -510 -525 -560 0
4 19 126 441 0
-4 -19 -126 -441 0
3 22 128 442 0
-3 -22 -128 -442 0
7 25 130 443 0
-7 -25 -130 -443 0
10 28 132 444 0
-10 -28 -132 -444 0
13 31 134 445 0
-13 -31 -134 -445 0
16 34 136 446 0
-16 -34 -136 -446 0
19 37 138 447 0
-19 -37 -138 -447 0
22 40 140 448 0
-22 -40 -140 -448 0
2 21 142 449 0
-2 -21 -142 -449 0
6 24 144 450 0
-6 -24 -144 -450 0
9 27 146 451 0
-9 -27 -146 -451 0
12 30 148 452 0
-12 -30 -148 -452 0
15 33 150 453 0
-15 -33 -150 -453 0
18 36 152 454 0
-18 -36 -152 -454 0
21 39 154 455 0
-21 -39 -154 -455 0
42 54 156 456 0
-42 -54 -156 -456 0
44 56 158 457 0
-44 -56 -158 -457 0
46 58 160 458 0
-46 -58 -160 -458 0
48 60 162 459 0
-48 -60 -162 -459 0
50 62 164 460 0
-50 -62 -164 -460 0
52 64 166 461 0
-52 -64 -166 -461 0
66 78 168 462 0
-66 -78 -168 -462 0
68 80 170 463 0
-68 -80 -170 -463 0
70 82 172 464 0
-70 -82 -172 -464 0
72 84 174 465 0
-72 -84 -174 -465 0
74 86 176 466 0
-74 -86 -176 -466 0
88 100 178 467 0
-88 -100 -178 -467 0
90 102 180 468 0
-90 -102 -180 -468 0
92 104 182 469 0
-92 -104 -182 -469 0
94 106 184 470 0
-94 -106 -184 -470 0
108 120 186 471 0
-108 -120 -186 -471 0
110 122 188 472 0
-110 -122 -188 -472 0
112 124 190 473 0
-112 -124 -190 -473 0
126 138 192 474 0
-126 -138 -192 -474 0
128 140 194 475 0
-128 -140 -194 -475 0
142 154 196 476 0
-142 -154 -196 -476 0
1 20 141 477 0
-1 -20 -141 -477 0
5 23 143 478 0
-5 -23 -143 -478 0
8 26 145 479 0
-8 -26 -145 -479 0
11 29 147 480 0
-11 -29 -147 -480 0
14 32 149 481 0
-14 -32 -149 -481 0
17 35 151 482 0
-17 -35 -151 -482 0
20 38 153 483 0
-20 -38 -153 -483 0
41 53 155 484 0
-41 -53 -155 -484 0
43 55 157 485 0
-43 -55 -157 -485 0
45 57 159 486 0
-45 -57 -159 -486 0
47 59 161 487 0
-47 -59 -161 -487 0
49 61 163 488 0
-49 -61 -163 -488 0
51 63 165 489 0
-51 -63 -165 -489 0
65 77 167 490 0
-65 -77 -167 -490 0
67 79 169 491 0
-67 -79 -169 -491 0
69 81 171 492 0
-69 -81 -171 -492 0
71 83 173 493 0
-71 -83 -173 -493 0
73 85 175 494 0
-73 -85 -175 -494 0
87 99 177 495 0
-87 -99 -177 -495 0
89 101 179 496 0
-89 -101 -179 -496 0
91 103 181 497 0
-91 -103 -181 -497 0
93 105 183 498 0
-93 -105 -183 -498 0
107 119 185 499 0
-107 -119 -185 -499 0
109 121 187 500 0
-109 -121 -187 -500 0
111 123 189 501 0
-111 -123 -189 -501 0
125 137 191 502 0
-125 -137 -191 -502 0
127 139 193 503 0
-127 -139 -193 -503 0
141 153 195 504 0
-141 -153 -195 -504 0
197 203 254 505 0
-197 -203 -254 -505 0
198 204 255 506 0
-198 -204 -255 -506 0
199 205 256 507 0
-199 -205 -256 -507 0
200 206 257 508 0
-200 -206 -257 -508 0
201 207 258 509 0
-201 -207 -258 -509 0
202 208 259 510 0
-202 -208 -259 -510 0
209 215 260 511 0
-209 -215 -260 -511 0
210 216 261 512 0
-210 -216 -261 -512 0
211 217 262 513 0
-211 -217 -262 -513 0
212 218 263 514 0
-212 -218 -263 -514 0
213 219 264 515 0
-213 -219 -264 -515 0
220 226 265 516 0
-220 -226 -265 -516 0
221 227 266 517 0
-221 -227 -266 -517 0
222 228 267 518 0
-222 -228 -267 -518 0
223 229 268 519 0
-223 -229 -268 -519 0
230 236 269 520 0
-230 -236 -269 -520 0
231 237 270 521 0
-231 -237 -270 -521 0
232 238 271 522 0
-232 -238 -271 -522 0
239 245 272 523 0
-239 -245 -272 -523 0
240 246 273 524 0
-240 -246 -273 -524 0
247 253 274 525 0
-247 -253 -274 -525 0
275 281 326 526 0
-275 -281 -326 -526 0
276 282 327 527 0
-276 -282 -327 -527 0
277 283 328 528 0
-277 -283 -328 -528 0
278 284 329 529 0
-278 -284 -329 -529 0
279 285 330 530 0
-279 -285 -330 -530 0
286 292 331 531 0
-286 -292 -331 -531 0
287 293 332 532 0
-287 -293 -332 -532 0
288 294 333 533 0
-288 -294 -333 -533 0
289 295 334 534 0
-289 -295 -334 -534 0
296 302 335 535 0
-296 -302 -335 -535 0
297 303 336 536 0
-297 -303 -336 -536 0
298 304 337 537 0
-298 -304 -337 -537 0
305 311 338 538 0
-305 -311 -338 -538 0
306 312 339 539 0
-306 -312 -339 -539 0
313 319 340 540 0
-313 -319 -340 -540 0
341 347 386 541 0
-341 -347 -386 -541 0
342 348 387 542 0
-342 -348 -387 -542 0
343 349 388 543 0
-343 -349 -388 -543 0
344 350 389 544 0
-344 -350 -389 -544 0
351 357 390 545 0
-351 -357 -390 -545 0
352 358 391 546 0
-352 -358 -391 -546 0
353 359 392 547 0
-353 -359 -392 -547 0
360 366 393 548 0
-360 -366 -393 -548 0
361 367 394 549 0
-361 -367 -394 -549 0
368 374 395 550 0
-368 -374 -395 -550 0
396 402 435 551 0
-396 -402 -435 -551 0
397 403 436 552 0
-397 -403 -436 -552 0
398 404 437 553 0
-398 -404 -437 -553 0
405 411 438 554 0
-405 -411 -438 -554 0
406 412 439 555 0
-406 -412 -439 -555 0
413 419 440 556 0
-413 -419 -440 -556 0
441 447 474 557 0
-441 -447 -474 -557 0
442 448 475 558 0
-442 -448 -475 -558 0
449 455 476 559 0
-449 -455 -476 -559 0
477 483 504 560 0
-477 -483 -504 -560 0
4 22 142 477 0
-4 -22 -142 -477 0
3 25 144 478 0
-3 -25 -144 -478 0
7 28 146 479 0
-7 -28 -146 -479 0
10 31 148 480 0
-10 -31 -148 -480 0
13 34 150 481 0
-13 -34 -150 -481 0
16 37 152 482 0
-16 -37 -152 -482 0
19 40 154 483 0
-19 -40 -154 -483 0
2 24 156 484 0
-2 -24 -156 -484 0
6 27 158 485 0
-6 -27 -158 -485 0
9 30 160 486 0
-9 -30 -160 -486 0
12 33 162 487 0
-12 -33 -162 -487 0
15 36 164 488 0
-15 -36 -164 -488 0
18 39 166 489 0
-18 -39 -166 -489 0
42 56 168 490 0
-42 -56 -168 -490 0
44 58 170 491 0
-44 -58 -170 -491 0
46 60 172 492 0
-46 -60 -172 -492 0
48 62 174 493 0
-48 -62 -174 -493 0
50 64 176 494 0
-50 -64 -176 -494 0
66 80 178 495 0
-66 -80 -178 -495 0
68 82 180 496 0
-68 -82 -180 -496 0
70 84 182 497 0
-70 -84 -182 -497 0
72 86 184 498 0
-72 -86 -184 -498 0
88 102 186 499 0
-88 -102 -186 -499 0
90 104 188 500 0
-90 -104 -188 -500 0
92 106 190 501 0
-92 -106 -190 -501 0
108 122 192 502 0
-108 -122 -192 -502 0
110 124 194 503 0
-110 -124 -194 -503 0
126 140 196 504 0
-126 -140 -196 -504 0
1 23 155 505 0
-1 -23 -155 -505 0
5 26 157 506 0
-5 -26 -157 -506 0
8 29 159 507 0
-8 -29 -159 -507 0
11 32 161 508 0
-11 -32 -161 -508 0
14 35 163 509 0
-14 -35 -163 -509 0
17 38 165 510 0
-17 -38 -165 -510 0
41 55 167 511 0
-41 -55 -167 -511 0
43 57 169 512 0
-43 -57 -169 -512 0
45 59 171 513 0
-45 -59 -171 -513 0
47 61 173 514 0
-47 -61 -173 -514 0
49 63 175 515 0
-49 -63 -175 -515 0
65 79 177 516 0
-65 -79 -177 -516 0
67 81 179 517 0
-67 -81 -179 -517 0
69 83 181 518 0
-69 -83 -181 -518 0
71 85 183 519 0
-71 -85 -183 -519 0
87 101 185 520 0
-87 -101 -185 -520 0
89 103 187 521 0
-89 -103 -187 -521 0
91 105 189 522 0
-91 -105 -189 -522 0
107 121 191 523 0
-107 -121 -191 -523 0
109 123 193 524 0
-109 -123 -193 -524 0
125 139 195 525 0
-125 -139 -195 -525 0
197 204 260 526 0
-197 -204 -260 -526 0
198 205 261 527 0
-198 -205 -261 -527 0
199 206 262 528 0
-199 -206 -262 -528 0
200 207 263 529 0
-200 -207 -263 -529 0
201 208 264 530 0
-201 -208 -264 -530 0
209 216 265 531 0
-209 -216 -265 -531 0
210 217 266 532 0
-210 -217 -266 -532 0
211 218 267 533 0
-211 -218 -267 -533 0
212 219 268 534 0
-212 -219 -268 -534 0
220 227 269 535 0
-220 -227 -269 -535 0
221 228 270 536 0
-221 -228 -270 -536 0
222 229 271 537 0
-222 -229 -271 -537 0
230 237 272 538 0
-230 -237 -272 -538 0
231 238 273 539 0
-231 -238 -273 -539 0
239 246 274 540 0
-239 -246 -274 -540 0
275 282 331 541 0
-275 -282 -331 -541 0
276 283 332 542 0
-276 -283 -332 -542 0
277 284 333 543 0
-277 -284 -333 -543 0
278 285 334 544 0
-278 -285 -334 -544 0
286 293 335 545 0
-286 -293 -335 -545 0
287 294 336 546 0
-287 -294 -336 -546 0
288 295 337 547 0
-288 -295 -337 -547 0
296 303 338 548 0
-296 -303 -338 -548 0
297 304 339 549 0
-297 -304 -339 -549 0
305 312 340 550 0
-305 -312 -340 -550 0
341 348 390 551 0
-341 -348 -390 -551 0
342 349 391 552 0
-342 -349 -391 -552 0
343 350 392 553 0
-343 -350 -392 -553 0
351 358 393 554 0
-351 -358 -393 -554 0
352 359 394 555 0
-352 -359 -394 -555 0
360 367 395 556 0
-360 -367 -395 -556 0
396 403 438 557 0
-396 -403 -438 -557 0
397 404 439 558 0
-397 -404 -439 -558 0
405 412 440 559 0
-405 -412 -440 -559 0
441 448 476 560 0
-441 -448 -476 -560 0
4 25 156 505 0
-4 -25 -156 -505 0
3 28 158 506 0
-3 -28 -158 -506 0
7 31 160 507 0
-7 -31 -160 -507 0
10 34 162 508 0
-10 -34 -162 -508 0
13 37 164 509 0
-13 -37 -164 -509 0
16 40 166 510 0
-16 -40 -166 -510 0
2 27 168 511 0
-2 -27 -168 -511 0
6 30 170 512 0
-6 -30 -170 -512 0
9 33 172 513 0
-9 -33 -172 -513 0
12 36 174 514 0
-12 -36 -174 -514 0
15 39 176 515 0
-15 -39 -176 -515 0
42 58 178 516 0
-42 -58 -178 -516 0
44 60 180 517 0
-44 -60 -180 -517 0
46 62 182 518 0
-46 -62 -182 -518 0
48 64 184 519 0
-48 -64 -184 -519 0
66 82 186 520 0
-66 -82 -186 -520 0
68 84 188 521 0
-68 -84 -188 -521 0
70 86 190 522 0
-70 -86 -190 -522 0
88 104 192 523 0
-88 -104 -192 -523 0
90 106 194 524 0
-90 -106 -194 -524 0
108 124 196 525 0
-108 -124 -196 -525 0
1 26 167 526 0
-1 -26 -167 -526 0
5 29 169 527 0
-5 -29 -169 -527 0
8 32 171 528 0
-8 -32 -171 -528 0
11 35 173 529 0
-11 -35 -173 -529 0
14 38 175 530 0
-14 -38 -175 -530 0
41 57 177 531 0
-41 -57 -177 -531 0
43 59 179 532 0
-43 -59 -179 -532 0
45 61 181 533 0
-45 -61 -181 -533 0
47 63 183 534 0
-47 -63 -183 -534 0
65 81 185 535 0
-65 -81 -185 -535 0
67 83 187 536 0
-67 -83 -187 -536 0
69 85 189 537 0
-69 -85 -189 -537 0
87 103 191 538 0
-87 -103 -191 -538 0
89 105 193 539 0
-89 -105 -193 -539 0
107 123 195 540 0
-107 -123 -195 -540 0
197 205 265 541 0
-197 -205 -265 -541 0
198 206 266 542 0
-198 -206 -266 -542 0
199 207 267 543 0
-199 -207 -267 -543 0
200 208 268 544 0
-200 -208 -268 -544 0
209 217 269 545 0
-209 -217 -269 -545 0
210 218 270 546 0
-210 -218 -270 -546 0
211 219 271 547 0
-211 -219 -271 -547 0
220 228 272 548 0
-220 -228 -272 -548 0
221 229 273 549 0
-221 -229 -273 -549 0
230 238 274 550 0
-230 -238 -274 -550 0
275 283 335 551 0
-275 -283 -335 -551 0
276 284 336 552 0
-276 -284 -336 -552 0
277 285 337 553 0
-277 -285 -337 -553 0
286 294 338 554 0
-286 -294 -338 -554 0
287 295 339 555 0
-287 -295 -339 -555 0
296 304 340 556 0
-296 -304 -340 -556 0
341 349 393 557 0
-341 -349 -393 -557 0
342 350 394 558 0
-342 -350 -394 -558 0
351 359 395 559 0
-351 -359 -395 -559 0
396 404 440 560 0
-396 -404 -440 -560 0
4 28 168 526 0
-4 -28 -168 -526 0
3 31 170 527 0
-3 -31 -170 -527 0
7 34 172 528 0
-7 -34 -172 -528 0
10 37 174 529 0
-10 -37 -174 -529 0
13 40 176 530 0
-13 -40 -176 -530 0
2 30 178 531 0
-2 -30 -178 -531 0
6 33 180 532 0
-6 -33 -180 -532 0
9 36 182 533 0
-9 -36 -182 -533 0
12 39 184 534 0
-12 -39 -184 -534 0
42 60 186 535 0
-42 -60 -186 -535 0
44 62 188 536 0
-44 -62 -188 -536 0
46 64 190 537 0
-46 -64 -190 -537 0
66 84 192 538 0
-66 -84 -192 -538 0
68 86 194 539 0
-68 -86 -194 -539 0
88 106 196 540 0
-88 -106 -196 -540 0
1 29 177 541 0
-1 -29 -177 -541 0
5 32 179 542 0
-5 -32 -179 -542 0
8 35 181 543 0
-8 -35 -181 -543 0
11 38 183 544 0
-11 -38 -183 -544 0
41 59 185 545 0
-41 -59 -185 -545 0
43 61 187 546 0
-43 -61 -187 -546 0
45 63 189 547 0
-45 -63 -189 -547 0
65 83 191 548 0
-65 -83 -191 -548 0
67 85 193 549 0
-67 -85 -193 -549 0
87 105 195 550 0
-87 -105 -195 -550 0
197 206 269 551 0
-197 -206 -269 -551 0
198 207 270 552 0
-198 -207 -270 -552 0
199 208 271 553 0
-199 -208 -271 -553 0
209 218 272 554 0
-209 -218 -272 -554 0
210 219 273 555 0
-210 -219 -273 -555 0
220 229 274 556 0
-220 -229 -274 -556 0
275 284 338 557 0
-275 -284 -338 -557 0
276 285 339 558 0
-276 -285 -339 -558 0
286 295 340 559 0
-286 -295 -340 -559 0
341 350 395 560 0
-341 -350 -395 -560 0
4 31 178 541 0
-4 -31 -178 -541 0
3 34 180 542 0
-3 -34 -180 -542 0
7 37 182 543 0
-7 -37 -182 -543 0
10 40 184 544 0
-10 -40 -184 -544 0
2 33 186 545 0
-2 -33 -186 -545 0
6 36 188 546 0
-6 -36 -188 -546 0
9 39 190 547 0
-9 -39 -190 -547 0
42 62 192 548 0
-42 -62 -192 -548 0
44 64 194 549 0
-44 -64 -194 -549 0
66 86 196 550 0
-66 -86 -196 -550 0
1 32 185 551 0
-1 -32 -185 -551 0
5 35 187 552 0
-5 -35 -187 -552 0
8 38 189 553 0
-8 -38 -189 -553 0
41 61 191 554 0
-41 -61 -191 -554 0
43 63 193 555 0
-43 -63 -193 -555 0
65 85 195 556 0
-65 -85 -195 -556 0
197 207 272 557 0
-197 -207 -272 -557 0
198 208 273 558 0
-198 -208 -273 -558 0
209 219 274 559 0
-209 -219 -274 -559 0
275 285 340 560 0
-275 -285 -340 -560 0
4 34 186 551 0
-4 -34 -186 -551 0
3 37 188 552 0
-3 -37 -188 -552 0
7 40 190 553 0
-7 -40 -190 -553 0
2 36 192 554 0
-2 -36 -192 -554 0
6 39 194 555 0
-6 -39 -194 -555 0
42 64 196 556 0
-42 -64 -196 -556 0
1 35 191 557 0
-1 -35 -191 -557 0
5 38 193 558 0
-5 -38 -193 -558 0
41 63 195 559 0
-41 -63 -195 -559 0
197 208 274 560 0
-197 -208 -274 -560 0
4 37 192 557 0
-4 -37 -192 -557 0
3 40 194 558 0
-3 -40 -194 -558 0
2 39 196 559 0
-2 -39 -196 -559 0
1 38 195 560 0
-1 -38 -195 -560 0
4 40 196 560 0
-4 -40 -196 -560 0
