c S_n-invariant Hales-Jewett, k=4, n=12
p cnf 455 2730
1 2 3 4 0
-1 -2 -3 -4 0
3 5 6 7 0
-3 -5 -6 -7 0
7 8 9 10 0
-7 -8 -9 -10 0
10 11 12 13 0
-10 -11 -12 -13 0
13 14 15 16 0
-13 -14 -15 -16 0
16 17 18 19 0
-16 -17 -18 -19 0
19 20 21 22 0
-19 -20 -21 -22 0
22 23 24 25 0
-22 -23 -24 -25 0
25 26 27 28 0
-25 -26 -27 -28 0
28 29 30 31 0
-28 -29 -30 -31 0
31 32 33 34 0
-31 -32 -33 -34 0
34 35 36 37 0
-34 -35 -36 -37 0
2 6 38 39 0
-2 -6 -38 -39 0
6 9 40 41 0
-6 -9 -40 -41 0
9 12 42 43 0
-9 -12 -42 -43 0
12 15 44 45 0
-12 -15 -44 -45 0
15 18 46 47 0
-15 -18 -46 -47 0
18 21 48 49 0
-18 -21 -48 -49 0
21 24 50 51 0
-21 -24 -50 -51 0
24 27 52 53 0
-24 -27 -52 -53 0
27 30 54 55 0
-27 -30 -54 -55 0
30 33 56 57 0
-30 -33 -56 -57 0
33 36 58 59 0
-33 -36 -58 -59 0
39 41 60 61 0
-39 -41 -60 -61 0
41 43 62 63 0
-41 -43 -62 -63 0
43 45 64 65 0
-43 -45 -64 -65 0
45 47 66 67 0
-45 -47 -66 -67 0
47 49 68 69 0
-47 -49 -68 -69 0
49 51 70 71 0
-49 -51 -70 -71 0
51 53 72 73 0
-51 -53 -72 -73 0
53 55 74 75 0
-53 -55 -74 -75 0
55 57 76 77 0
-55 -57 -76 -77 0
57 59 78 79 0
-57 -59 -78 -79 0
61 63 80 81 0
-61 -63 -80 -81 0
63 65 82 83 0
-63 -65 -82 -83 0
65 67 84 85 0
-65 -67 -84 -85 0
67 69 86 87 0
-67 -69 -86 -87 0
69 71 88 89 0
-69 -71 -88 -89 0
71 73 90 91 0
-71 -73 -90 -91 0
73 75 92 93 0
-73 -75 -92 -93 0
75 77 94 95 0
-75 -77 -94 -95 0
77 79 96 97 0
-77 -79 -96 -97 0
81 83 98 99 0
-81 -83 -98 -99 0
83 85 100 101 0
-83 -85 -100 -101 0
85 87 102 103 0
-85 -87 -102 -103 0
87 89 104 105 0
-87 -89 -104 -105 0
89 91 106 107 0
-89 -91 -106 -107 0
91 93 108 109 0
-91 -93 -108 -109 0
93 95 110 111 0
-93 -95 -110 -111 0
95 97 112 113 0
-95 -97 -112 -113 0
99 101 114 115 0
-99 -101 -114 -115 0
101 103 116 117 0
-101 -103 -116 -117 0
103 105 118 119 0
-103 -105 -118 -119 0
105 107 120 121 0
-105 -107 -120 -121 0
107 109 122 123 0
-107 -109 -122 -123 0
109 111 124 125 0
-109 -111 -124 -125 0
111 113 126 127 0
-111 -113 -126 -127 0
115 117 128 129 0
-115 -117 -128 -129 0
117 119 130 131 0
-117 -119 -130 -131 0
119 121 132 133 0
-119 -121 -132 -133 0
121 123 134 135 0
-121 -123 -134 -135 0
123 125 136 137 0
-123 -125 -136 -137 0
125 127 138 139 0
-125 -127 -138 -139 0
129 131 140 141 0
-129 -131 -140 -141 0
131 133 142 143 0
-131 -133 -142 -143 0
133 135 144 145 0
-133 -135 -144 -145 0
135 137 146 147 0
-135 -137 -146 -147 0
137 139 148 149 0
-137 -139 -148 -149 0
141 143 150 151 0
-141 -143 -150 -151 0
143 145 152 153 0
-143 -145 -152 -153 0
145 147 154 155 0
-145 -147 -154 -155 0
147 149 156 157 0
-147 -149 -156 -157 0
151 153 158 159 0
-151 -153 -158 -159 0
153 155 160 161 0
-153 -155 -160 -161 0
155 157 162 163 0
-155 -157 -162 -163 0
159 161 164 165 0
-159 -161 -164 -165 0
161 163 166 167 0
-161 -163 -166 -167 0
165 167 168 169 0
-165 -167 -168 -169 0
1 5 38 170 0
-1 -5 -38 -170 0
5 8 40 171 0
-5 -8 -40 -171 0
8 11 42 172 0
-8 -11 -42 -172 0
11 14 44 173 0
-11 -14 -44 -173 0
14 17 46 174 0
-14 -17 -46 -174 0
17 20 48 175 0
-17 -20 -48 -175 0
20 23 50 176 0
-20 -23 -50 -176 0
23 26 52 177 0
-23 -26 -52 -177 0
26 29 54 178 0
-26 -29 -54 -178 0
29 32 56 179 0
-29 -32 -56 -179 0
32 35 58 180 0
-32 -35 -58 -180 0
38 40 60 181 0
-38 -40 -60 -181 0
40 42 62 182 0
-40 -42 -62 -182 0
42 44 64 183 0
-42 -44 -64 -183 0
44 46 66 184 0
-44 -46 -66 -184 0
46 48 68 185 0
-46 -48 -68 -185 0
48 50 70 186 0
-48 -50 -70 -186 0
50 52 72 187 0
-50 -52 -72 -187 0
52 54 74 188 0
-52 -54 -74 -188 0
54 56 76 189 0
-54 -56 -76 -189 0
56 58 78 190 0
-56 -58 -78 -190 0
60 62 80 191 0
-60 -62 -80 -191 0
62 64 82 192 0
-62 -64 -82 -192 0
64 66 84 193 0
-64 -66 -84 -193 0
66 68 86 194 0
-66 -68 -86 -194 0
68 70 88 195 0
-68 -70 -88 -195 0
70 72 90 196 0
-70 -72 -90 -196 0
72 74 92 197 0
-72 -74 -92 -197 0
74 76 94 198 0
-74 -76 -94 -198 0
76 78 96 199 0
-76 -78 -96 -199 0
80 82 98 200 0
-80 -82 -98 -200 0
82 84 100 201 0
-82 -84 -100 -201 0
84 86 102 202 0
-84 -86 -102 -202 0
86 88 104 203 0
-86 -88 -104 -203 0
88 90 106 204 0
-88 -90 -106 -204 0
90 92 108 205 0
-90 -92 -108 -205 0
92 94 110 206 0
-92 -94 -110 -206 0
94 96 112 207 0
-94 -96 -112 -207 0
98 100 114 208 0
-98 -100 -114 -208 0
100 102 116 209 0
-100 -102 -116 -209 0
102 104 118 210 0
-102 -104 -118 -210 0
104 106 120 211 0
-104 -106 -120 -211 0
106 108 122 212 0
-106 -108 -122 -212 0
108 110 124 213 0
-108 -110 -124 -213 0
110 112 126 214 0
-110 -112 -126 -214 0
114 116 128 215 0
-114 -116 -128 -215 0
116 118 130 216 0
-116 -118 -130 -216 0
118 120 132 217 0
-118 -120 -132 -217 0
120 122 134 218 0
-120 -122 -134 -218 0
122 124 136 219 0
-122 -124 -136 -219 0
124 126 138 220 0
-124 -126 -138 -220 0
128 130 140 221 0
-128 -130 -140 -221 0
130 132 142 222 0
-130 -132 -142 -222 0
132 134 144 223 0
-132 -134 -144 -223 0
134 136 146 224 0
-134 -136 -146 -224 0
136 138 148 225 0
-136 -138 -148 -225 0
140 142 150 226 0
-140 -142 -150 -226 0
142 144 152 227 0
-142 -144 -152 -227 0
144 146 154 228 0
-144 -146 -154 -228 0
146 148 156 229 0
-146 -148 -156 -229 0
150 152 158 230 0
-150 -152 -158 -230 0
152 154 160 231 0
-152 -154 -160 -231 0
154 156 162 232 0
-154 -156 -162 -232 0
158 160 164 233 0
-158 -160 -164 -233 0
160 162 166 234 0
-160 -162 -166 -234 0
164 166 168 235 0
-164 -166 -168 -235 0
170 171 181 236 0
-170 -171 -181 -236 0
171 172 182 237 0
-171 -172 -182 -237 0
172 173 183 238 0
-172 -173 -183 -238 0
173 174 184 239 0
-173 -174 -184 -239 0
174 175 185 240 0
-174 -175 -185 -240 0
175 176 186 241 0
-175 -176 -186 -241 0
176 177 187 242 0
-176 -177 -187 -242 0
177 178 188 243 0
-177 -178 -188 -243 0
178 179 189 244 0
-178 -179 -189 -244 0
179 180 190 245 0
-179 -180 -190 -245 0
181 182 191 246 0
-181 -182 -191 -246 0
182 183 192 247 0
-182 -183 -192 -247 0
183 184 193 248 0
-183 -184 -193 -248 0
184 185 194 249 0
-184 -185 -194 -249 0
185 186 195 250 0
-185 -186 -195 -250 0
186 187 196 251 0
-186 -187 -196 -251 0
187 188 197 252 0
-187 -188 -197 -252 0
188 189 198 253 0
-188 -189 -198 -253 0
189 190 199 254 0
-189 -190 -199 -254 0
191 192 200 255 0
-191 -192 -200 -255 0
192 193 201 256 0
-192 -193 -201 -256 0
193 194 202 257 0
-193 -194 -202 -257 0
194 195 203 258 0
-194 -195 -203 -258 0
195 196 204 259 0
-195 -196 -204 -259 0
196 197 205 260 0
-196 -197 -205 -260 0
197 198 206 261 0
-197 -198 -206 -261 0
198 199 207 262 0
-198 -199 -207 -262 0
200 201 208 263 0
-200 -201 -208 -263 0
201 202 209 264 0
-201 -202 -209 -264 0
202 203 210 265 0
-202 -203 -210 -265 0
203 204 211 266 0
-203 -204 -211 -266 0
204 205 212 267 0
-204 -205 -212 -267 0
205 206 213 268 0
-205 -206 -213 -268 0
206 207 214 269 0
-206 -207 -214 -269 0
208 209 215 270 0
-208 -209 -215 -270 0
209 210 216 271 0
-209 -210 -216 -271 0
210 211 217 272 0
-210 -211 -217 -272 0
211 212 218 273 0
-211 -212 -218 -273 0
212 213 219 274 0
-212 -213 -219 -274 0
213 214 220 275 0
-213 -214 -220 -275 0
215 216 221 276 0
-215 -216 -221 -276 0
216 217 222 277 0
-216 -217 -222 -277 0
217 218 223 278 0
-217 -218 -223 -278 0
218 219 224 279 0
-218 -219 -224 -279 0
219 220 225 280 0
-219 -220 -225 -280 0
221 222 226 281 0
-221 -222 -226 -281 0
222 223 227 282 0
-222 -223 -227 -282 0
223 224 228 283 0
-223 -224 -228 -283 0
224 225 229 284 0
-224 -225 -229 -284 0
226 227 230 285 0
-226 -227 -230 -285 0
227 228 231 286 0
-227 -228 -231 -286 0
228 229 232 287 0
-228 -229 -232 -287 0
230 231 233 288 0
-230 -231 -233 -288 0
231 232 234 289 0
-231 -232 -234 -289 0
233 234 235 290 0
-233 -234 -235 -290 0
236 237 246 291 0
-236 -237 -246 -291 0
237 238 247 292 0
-237 -238 -247 -292 0
238 239 248 293 0
-238 -239 -248 -293 0
239 240 249 294 0
-239 -240 -249 -294 0
240 241 250 295 0
-240 -241 -250 -295 0
241 242 251 296 0
-241 -242 -251 -296 0
242 243 252 297 0
-242 -243 -252 -297 0
243 244 253 298 0
-243 -244 -253 -298 0
244 245 254 299 0
-244 -245 -254 -299 0
246 247 255 300 0
-246 -247 -255 -300 0
247 248 256 301 0
-247 -248 -256 -301 0
248 249 257 302 0
-248 -249 -257 -302 0
249 250 258 303 0
-249 -250 -258 -303 0
250 251 259 304 0
-250 -251 -259 -304 0
251 252 260 305 0
-251 -252 -260 -305 0
252 253 261 306 0
-252 -253 -261 -306 0
253 254 262 307 0
-253 -254 -262 -307 0
255 256 263 308 0
-255 -256 -263 -308 0
256 257 264 309 0
-256 -257 -264 -309 0
257 258 265 310 0
-257 -258 -265 -310 0
258 259 266 311 0
-258 -259 -266 -311 0
259 260 267 312 0
-259 -260 -267 -312 0
260 261 268 313 0
-260 -261 -268 -313 0
261 262 269 314 0
-261 -262 -269 -314 0
263 264 270 315 0
-263 -264 -270 -315 0
264 265 271 316 0
-264 -265 -271 -316 0
265 266 272 317 0
-265 -266 -272 -317 0
266 267 273 318 0
-266 -267 -273 -318 0
267 268 274 319 0
-267 -268 -274 -319 0
268 269 275 320 0
-268 -269 -275 -320 0
270 271 276 321 0
-270 -271 -276 -321 0
271 272 277 322 0
-271 -272 -277 -322 0
272 273 278 323 0
-272 -273 -278 -323 0
273 274 279 324 0
-273 -274 -279 -324 0
274 275 280 325 0
-274 -275 -280 -325 0
276 277 281 326 0
-276 -277 -281 -326 0
277 278 282 327 0
-277 -278 -282 -327 0
278 279 283 328 0
-278 -279 -283 -328 0
279 280 284 329 0
-279 -280 -284 -329 0
281 282 285 330 0
-281 -282 -285 -330 0
282 283 286 331 0
-282 -283 -286 -331 0
283 284 287 332 0
-283 -284 -287 -332 0
285 286 288 333 0
-285 -286 -288 -333 0
286 287 289 334 0
-286 -287 -289 -334 0
288 289 290 335 0
-288 -289 -290 -335 0
291 292 300 336 0
-291 -292 -300 -336 0
292 293 301 337 0
-292 -293 -301 -337 0
293 294 302 338 0
-293 -294 -302 -338 0
294 295 303 339 0
-294 -295 -303 -339 0
295 296 304 340 0
-295 -296 -304 -340 0
296 297 305 341 0
-296 -297 -305 -341 0
297 298 306 342 0
-297 -298 -306 -342 0
298 299 307 343 0
-298 -299 -307 -343 0
300 301 308 344 0
-300 -301 -308 -344 0
301 302 309 345 0
-301 -302 -309 -345 0
302 303 310 346 0
-302 -303 -310 -346 0
303 304 311 347 0
-303 -304 -311 -347 0
304 305 312 348 0
-304 -305 -312 -348 0
305 306 313 349 0
-305 -306 -313 -349 0
306 307 314 350 0
-306 -307 -314 -350 0
308 309 315 351 0
-308 -309 -315 -351 0
309 310 316 352 0
-309 -310 -316 -352 0
310 311 317 353 0
-310 -311 -317 -353 0
311 312 318 354 0
-311 -312 -318 -354 0
312 313 319 355 0
-312 -313 -319 -355 0
313 314 320 356 0
-313 -314 -320 -356 0
315 316 321 357 0
-315 -316 -321 -357 0
316 317 322 358 0
-316 -317 -322 -358 0
317 318 323 359 0
-317 -318 -323 -359 0
318 319 324 360 0
-318 -319 -324 -360 0
319 320 325 361 0
-319 -320 -325 -361 0
321 322 326 362 0
-321 -322 -326 -362 0
322 323 327 363 0
-322 -323 -327 -363 0
323 324 328 364 0
-323 -324 -328 -364 0
324 325 329 365 0
-324 -325 -329 -365 0
326 327 330 366 0
-326 -327 -330 -366 0
327 328 331 367 0
-327 -328 -331 -367 0
328 329 332 368 0
-328 -329 -332 -368 0
330 331 333 369 0
-330 -331 -333 -369 0
331 332 334 370 0
-331 -332 -334 -370 0
333 334 335 371 0
-333 -334 -335 -371 0
336 337 344 372 0
-336 -337 -344 -372 0
337 338 345 373 0
-337 -338 -345 -373 0
338 339 346 374 0
-338 -339 -346 -374 0
339 340 347 375 0
-339 -340 -347 -375 0
340 341 348 376 0
-340 -341 -348 -376 0
341 342 349 377 0
-341 -342 -349 -377 0
342 343 350 378 0
-342 -343 -350 -378 0
344 345 351 379 0
-344 -345 -351 -379 0
345 346 352 380 0
-345 -346 -352 -380 0
346 347 353 381 0
-346 -347 -353 -381 0
347 348 354 382 0
-347 -348 -354 -382 0
348 349 355 383 0
-348 -349 -355 -383 0
349 350 356 384 0
-349 -350 -356 -384 0
351 352 357 385 0
-351 -352 -357 -385 0
352 353 358 386 0
-352 -353 -358 -386 0
353 354 359 387 0
-353 -354 -359 -387 0
354 355 360 388 0
-354 -355 -360 -388 0
355 356 361 389 0
-355 -356 -361 -389 0
357 358 362 390 0
-357 -358 -362 -390 0
358 359 363 391 0
-358 -359 -363 -391 0
359 360 364 392 0
-359 -360 -364 -392 0
360 361 365 393 0
-360 -361 -365 -393 0
362 363 366 394 0
-362 -363 -366 -394 0
363 364 367 395 0
-363 -364 -367 -395 0
364 365 368 396 0
-364 -365 -368 -396 0
366 367 369 397 0
-366 -367 -369 -397 0
367 368 370 398 0
-367 -368 -370 -398 0
369 370 371 399 0
-369 -370 -371 -399 0
372 373 379 400 0
-372 -373 -379 -400 0
373 374 380 401 0
-373 -374 -380 -401 0
374 375 381 402 0
-374 -375 -381 -402 0
375 376 382 403 0
-375 -376 -382 -403 0
376 377 383 404 0
-376 -377 -383 -404 0
377 378 384 405 0
-377 -378 -384 -405 0
379 380 385 406 0
-379 -380 -385 -406 0
380 381 386 407 0
-380 -381 -386 -407 0
381 382 387 408 0
-381 -382 -387 -408 0
382 383 388 409 0
-382 -383 -388 -409 0
383 384 389 410 0
-383 -384 -389 -410 0
385 386 390 411 0
-385 -386 -390 -411 0
386 387 391 412 0
-386 -387 -391 -412 0
387 388 392 413 0
-387 -388 -392 -413 0
388 389 393 414 0
-388 -389 -393 -414 0
390 391 394 415 0
-390 -391 -394 -415 0
391 392 395 416 0
-391 -392 -395 -416 0
392 393 396 417 0
-392 -393 -396 -417 0
394 395 397 418 0
-394 -395 -397 -418 0
395 396 398 419 0
-395 -396 -398 -419 0
397 398 399 420 0
-397 -398 -399 -420 0
400 401 406 421 0
-400 -401 -406 -421 0
401 402 407 422 0
-401 -402 -407 -422 0
402 403 408 423 0
-402 -403 -408 -423 0
403 404 409 424 0
-403 -404 -409 -424 0
404 405 410 425 0
-404 -405 -410 -425 0
406 407 411 426 0
-406 -407 -411 -426 0
407 408 412 427 0
-407 -408 -412 -427 0
408 409 413 428 0
-408 -409 -413 -428 0
409 410 414 429 0
-409 -410 -414 -429 0
411 412 415 430 0
-411 -412 -415 -430 0
412 413 416 431 0
-412 -413 -416 -431 0
413 414 417 432 0
-413 -414 -417 -432 0
415 416 418 433 0
-415 -416 -418 -433 0
416 417 419 434 0
-416 -417 -419 -434 0
418 419 420 435 0
-418 -419 -420 -435 0
421 422 426 436 0
-421 -422 -426 -436 0
422 423 427 437 0
-422 -423 -427 -437 0
423 424 428 438 0
-423 -424 -428 -438 0
424 425 429 439 0
-424 -425 -429 -439 0
426 427 430 440 0
-426 -427 -430 -440 0
427 428 431 441 0
-427 -428 -431 -441 0
428 429 432 442 0
-428 -429 -432 -442 0
430 431 433 443 0
-430 -431 -433 -443 0
431 432 434 444 0
-431 -432 -434 -444 0
433 434 435 445 0
-433 -434 -435 -445 0
436 437 440 446 0
-436 -437 -440 -446 0
437 438 441 447 0
-437 -438 -441 -447 0
438 439 442 448 0
-438 -439 -442 -448 0
440 441 443 449 0
-440 -441 -443 -449 0
441 442 444 450 0
-441 -442 -444 -450 0
443 444 445 451 0
-443 -444 -445 -451 0
446 447 449 452 0
-446 -447 -449 -452 0
447 448 450 453 0
-447 -448 -450 -453 0
449 450 451 454 0
-449 -450 -451 -454 0
452 453 454 455 0
-452 -453 -454 -455 0
4 7 39 170 0
-4 -7 -39 -170 0
3 10 41 171 0
-3 -10 -41 -171 0
7 13 43 172 0
-7 -13 -43 -172 0
10 16 45 173 0
-10 -16 -45 -173 0
13 19 47 174 0
-13 -19 -47 -174 0
16 22 49 175 0
-16 -22 -49 -175 0
19 25 51 176 0
-19 -25 -51 -176 0
22 28 53 177 0
-22 -28 -53 -177 0
25 31 55 178 0
-25 -31 -55 -178 0
28 34 57 179 0
-28 -34 -57 -179 0
31 37 59 180 0
-31 -37 -59 -180 0
2 9 61 181 0
-2 -9 -61 -181 0
6 12 63 182 0
-6 -12 -63 -182 0
9 15 65 183 0
-9 -15 -65 -183 0
12 18 67 184 0
-12 -18 -67 -184 0
15 21 69 185 0
-15 -21 -69 -185 0
18 24 71 186 0
-18 -24 -71 -186 0
21 27 73 187 0
-21 -27 -73 -187 0
24 30 75 188 0
-24 -30 -75 -188 0
27 33 77 189 0
-27 -33 -77 -189 0
30 36 79 190 0
-30 -36 -79 -190 0
39 43 81 191 0
-39 -43 -81 -191 0
41 45 83 192 0
-41 -45 -83 -192 0
43 47 85 193 0
-43 -47 -85 -193 0
45 49 87 194 0
-45 -49 -87 -194 0
47 51 89 195 0
-47 -51 -89 -195 0
49 53 91 196 0
-49 -53 -91 -196 0
51 55 93 197 0
-51 -55 -93 -197 0
53 57 95 198 0
-53 -57 -95 -198 0
55 59 97 199 0
-55 -59 -97 -199 0
61 65 99 200 0
-61 -65 -99 -200 0
63 67 101 201 0
-63 -67 -101 -201 0
65 69 103 202 0
-65 -69 -103 -202 0
67 71 105 203 0
-67 -71 -105 -203 0
69 73 107 204 0
-69 -73 -107 -204 0
71 75 109 205 0
-71 -75 -109 -205 0
73 77 111 206 0
-73 -77 -111 -206 0
75 79 113 207 0
-75 -79 -113 -207 0
81 85 115 208 0
-81 -85 -115 -208 0
83 87 117 209 0
-83 -87 -117 -209 0
85 89 119 210 0
-85 -89 -119 -210 0
87 91 121 211 0
-87 -91 -121 -211 0
89 93 123 212 0
-89 -93 -123 -212 0
91 95 125 213 0
-91 -95 -125 -213 0
93 97 127 214 0
-93 -97 -127 -214 0
99 103 129 215 0
-99 -103 -129 -215 0
101 105 131 216 0
-101 -105 -131 -216 0
103 107 133 217 0
-103 -107 -133 -217 0
105 109 135 218 0
-105 -109 -135 -218 0
107 111 137 219 0
-107 -111 -137 -219 0
109 113 139 220 0
-109 -113 -139 -220 0
115 119 141 221 0
-115 -119 -141 -221 0
117 121 143 222 0
-117 -121 -143 -222 0
119 123 145 223 0
-119 -123 -145 -223 0
121 125 147 224 0
-121 -125 -147 -224 0
123 127 149 225 0
-123 -127 -149 -225 0
129 133 151 226 0
-129 -133 -151 -226 0
131 135 153 227 0
-131 -135 -153 -227 0
133 137 155 228 0
-133 -137 -155 -228 0
135 139 157 229 0
-135 -139 -157 -229 0
141 145 159 230 0
-141 -145 -159 -230 0
143 147 161 231 0
-143 -147 -161 -231 0
145 149 163 232 0
-145 -149 -163 -232 0
151 155 165 233 0
-151 -155 -165 -233 0
153 157 167 234 0
-153 -157 -167 -234 0
159 163 169 235 0
-159 -163 -169 -235 0
1 8 60 236 0
-1 -8 -60 -236 0
5 11 62 237 0
-5 -11 -62 -237 0
8 14 64 238 0
-8 -14 -64 -238 0
11 17 66 239 0
-11 -17 -66 -239 0
14 20 68 240 0
-14 -20 -68 -240 0
17 23 70 241 0
-17 -23 -70 -241 0
20 26 72 242 0
-20 -26 -72 -242 0
23 29 74 243 0
-23 -29 -74 -243 0
26 32 76 244 0
-26 -32 -76 -244 0
29 35 78 245 0
-29 -35 -78 -245 0
38 42 80 246 0
-38 -42 -80 -246 0
40 44 82 247 0
-40 -44 -82 -247 0
42 46 84 248 0
-42 -46 -84 -248 0
44 48 86 249 0
-44 -48 -86 -249 0
46 50 88 250 0
-46 -50 -88 -250 0
48 52 90 251 0
-48 -52 -90 -251 0
50 54 92 252 0
-50 -54 -92 -252 0
52 56 94 253 0
-52 -56 -94 -253 0
54 58 96 254 0
-54 -58 -96 -254 0
60 64 98 255 0
-60 -64 -98 -255 0
62 66 100 256 0
-62 -66 -100 -256 0
64 68 102 257 0
-64 -68 -102 -257 0
66 70 104 258 0
-66 -70 -104 -258 0
68 72 106 259 0
-68 -72 -106 -259 0
70 74 108 260 0
-70 -74 -108 -260 0
72 76 110 261 0
-72 -76 -110 -261 0
74 78 112 262 0
-74 -78 -112 -262 0
80 84 114 263 0
-80 -84 -114 -263 0
82 86 116 264 0
-82 -86 -116 -264 0
84 88 118 265 0
-84 -88 -118 -265 0
86 90 120 266 0
-86 -90 -120 -266 0
88 92 122 267 0
-88 -92 -122 -267 0
90 94 124 268 0
-90 -94 -124 -268 0
92 96 126 269 0
-92 -96 -126 -269 0
98 102 128 270 0
-98 -102 -128 -270 0
100 104 130 271 0
-100 -104 -130 -271 0
102 106 132 272 0
-102 -106 -132 -272 0
104 108 134 273 0
-104 -108 -134 -273 0
106 110 136 274 0
-106 -110 -136 -274 0
108 112 138 275 0
-108 -112 -138 -275 0
114 118 140 276 0
-114 -118 -140 -276 0
116 120 142 277 0
-116 -120 -142 -277 0
118 122 144 278 0
-118 -122 -144 -278 0
120 124 146 279 0
-120 -124 -146 -279 0
122 126 148 280 0
-122 -126 -148 -280 0
128 132 150 281 0
-128 -132 -150 -281 0
130 134 152 282 0
-130 -134 -152 -282 0
132 136 154 283 0
-132 -136 -154 -283 0
134 138 156 284 0
-134 -138 -156 -284 0
140 144 158 285 0
-140 -144 -158 -285 0
142 146 160 286 0
-142 -146 -160 -286 0
144 148 162 287 0
-144 -148 -162 -287 0
150 154 164 288 0
-150 -154 -164 -288 0
152 156 166 289 0
-152 -156 -166 -289 0
158 162 168 290 0
-158 -162 -168 -290 0
170 172 191 291 0
-170 -172 -191 -291 0
171 173 192 292 0
-171 -173 -192 -292 0
172 174 193 293 0
-172 -174 -193 -293 0
173 175 194 294 0
-173 -175 -194 -294 0
174 176 195 295 0
-174 -176 -195 -295 0
175 177 196 296 0
-175 -177 -196 -296 0
176 178 197 297 0
-176 -178 -197 -297 0
177 179 198 298 0
-177 -179 -198 -298 0
178 180 199 299 0
-178 -180 -199 -299 0
181 183 200 300 0
-181 -183 -200 -300 0
182 184 201 301 0
-182 -184 -201 -301 0
183 185 202 302 0
-183 -185 -202 -302 0
184 186 203 303 0
-184 -186 -203 -303 0
185 187 204 304 0
-185 -187 -204 -304 0
186 188 205 305 0
-186 -188 -205 -305 0
187 189 206 306 0
-187 -189 -206 -306 0
188 190 207 307 0
-188 -190 -207 -307 0
191 193 208 308 0
-191 -193 -208 -308 0
192 194 209 309 0
-192 -194 -209 -309 0
193 195 210 310 0
-193 -195 -210 -310 0
194 196 211 311 0
-194 -196 -211 -311 0
195 197 212 312 0
-195 -197 -212 -312 0
196 198 213 313 0
-196 -198 -213 -313 0
197 199 214 314 0
-197 -199 -214 -314 0
200 202 215 315 0
-200 -202 -215 -315 0
201 203 216 316 0
-201 -203 -216 -316 0
202 204 217 317 0
-202 -204 -217 -317 0
203 205 218 318 0
-203 -205 -218 -318 0
204 206 219 319 0
-204 -206 -219 -319 0
205 207 220 320 0
-205 -207 -220 -320 0
208 210 221 321 0
-208 -210 -221 -321 0
209 211 222 322 0
-209 -211 -222 -322 0
210 212 223 323 0
-210 -212 -223 -323 0
211 213 224 324 0
-211 -213 -224 -324 0
212 214 225 325 0
-212 -214 -225 -325 0
215 217 226 326 0
-215 -217 -226 -326 0
216 218 227 327 0
-216 -218 -227 -327 0
217 219 228 328 0
-217 -219 -228 -328 0
218 220 229 329 0
-218 -220 -229 -329 0
221 223 230 330 0
-221 -223 -230 -330 0
222 224 231 331 0
-222 -224 -231 -331 0
223 225 232 332 0
-223 -225 -232 -332 0
226 228 233 333 0
-226 -228 -233 -333 0
227 229 234 334 0
-227 -229 -234 -334 0
230 232 235 335 0
-230 -232 -235 -335 0
236 238 255 336 0
-236 -238 -255 -336 0
237 239 256 337 0
-237 -239 -256 -337 0
238 240 257 338 0
-238 -240 -257 -338 0
239 241 258 339 0
-239 -241 -258 -339 0
240 242 259 340 0
-240 -242 -259 -340 0
241 243 260 341 0
-241 -243 -260 -341 0
242 244 261 342 0
-242 -244 -261 -342 0
243 245 262 343 0
-243 -245 -262 -343 0
246 248 263 344 0
-246 -248 -263 -344 0
247 249 264 345 0
-247 -249 -264 -345 0
248 250 265 346 0
-248 -250 -265 -346 0
249 251 266 347 0
-249 -251 -266 -347 0
250 252 267 348 0
-250 -252 -267 -348 0
251 253 268 349 0
-251 -253 -268 -349 0
252 254 269 350 0
-252 -254 -269 -350 0
255 257 270 351 0
-255 -257 -270 -351 0
256 258 271 352 0
-256 -258 -271 -352 0
257 259 272 353 0
-257 -259 -272 -353 0
258 260 273 354 0
-258 -260 -273 -354 0
259 261 274 355 0
-259 -261 -274 -355 0
260 262 275 356 0
-260 -262 -275 -356 0
263 265 276 357 0
-263 -265 -276 -357 0
264 266 277 358 0
-264 -266 -277 -358 0
265 267 278 359 0
-265 -267 -278 -359 0
266 268 279 360 0
-266 -268 -279 -360 0
267 269 280 361 0
-267 -269 -280 -361 0
270 272 281 362 0
-270 -272 -281 -362 0
271 273 282 363 0
-271 -273 -282 -363 0
272 274 283 364 0
-272 -274 -283 -364 0
273 275 284 365 0
-273 -275 -284 -365 0
276 278 285 366 0
-276 -278 -285 -366 0
277 279 286 367 0
-277 -279 -286 -367 0
278 280 287 368 0
-278 -280 -287 -368 0
281 283 288 369 0
-281 -283 -288 -369 0
282 284 289 370 0
-282 -284 -289 -370 0
285 287 290 371 0
-285 -287 -290 -371 0
291 293 308 372 0
-291 -293 -308 -372 0
292 294 309 373 0
-292 -294 -309 -373 0
293 295 310 374 0
-293 -295 -310 -374 0
294 296 311 375 0
-294 -296 -311 -375 0
295 297 312 376 0
-295 -297 -312 -376 0
296 298 313 377 0
-296 -298 -313 -377 0
297 299 314 378 0
-297 -299 -314 -378 0
300 302 315 379 0
-300 -302 -315 -379 0
301 303 316 380 0
-301 -303 -316 -380 0
302 304 317 381 0
-302 -304 -317 -381 0
303 305 318 382 0
-303 -305 -318 -382 0
304 306 319 383 0
-304 -306 -319 -383 0
305 307 320 384 0
-305 -307 -320 -384 0
308 310 321 385 0
-308 -310 -321 -385 0
309 311 322 386 0
-309 -311 -322 -386 0
310 312 323 387 0
-310 -312 -323 -387 0
311 313 324 388 0
-311 -313 -324 -388 0
312 314 325 389 0
-312 -314 -325 -389 0
315 317 326 390 0
-315 -317 -326 -390 0
316 318 327 391 0
-316 -318 -327 -391 0
317 319 328 392 0
-317 -319 -328 -392 0
318 320 329 393 0
-318 -320 -329 -393 0
321 323 330 394 0
-321 -323 -330 -394 0
322 324 331 395 0
-322 -324 -331 -395 0
323 325 332 396 0
-323 -325 -332 -396 0
326 328 333 397 0
-326 -328 -333 -397 0
327 329 334 398 0
-327 -329 -334 -398 0
330 332 335 399 0
-330 -332 -335 -399 0
336 338 351 400 0
-336 -338 -351 -400 0
337 339 352 401 0
-337 -339 -352 -401 0
338 340 353 402 0
-338 -340 -353 -402 0
339 341 354 403 0
-339 -341 -354 -403 0
340 342 355 404 0
-340 -342 -355 -404 0
341 343 356 405 0
-341 -343 -356 -405 0
344 346 357 406 0
-344 -346 -357 -406 0
345 347 358 407 0
-345 -347 -358 -407 0
346 348 359 408 0
-346 -348 -359 -408 0
347 349 360 409 0
-347 -349 -360 -409 0
348 350 361 410 0
-348 -350 -361 -410 0
351 353 362 411 0
-351 -353 -362 -411 0
352 354 363 412 0
-352 -354 -363 -412 0
353 355 364 413 0
-353 -355 -364 -413 0
354 356 365 414 0
-354 -356 -365 -414 0
357 359 366 415 0
-357 -359 -366 -415 0
358 360 367 416 0
-358 -360 -367 -416 0
359 361 368 417 0
-359 -361 -368 -417 0
362 364 369 418 0
-362 -364 -369 -418 0
363 365 370 419 0
-363 -365 -370 -419 0
366 368 371 420 0
-366 -368 -371 -420 0
372 374 385 421 0
-372 -374 -385 -421 0
373 375 386 422 0
-373 -375 -386 -422 0
374 376 387 423 0
-374 -376 -387 -423 0
375 377 388 424 0
-375 -377 -388 -424 0
376 378 389 425 0
-376 -378 -389 -425 0
379 381 390 426 0
-379 -381 -390 -426 0
380 382 391 427 0
-380 -382 -391 -427 0
381 383 392 428 0
-381 -383 -392 -428 0
382 384 393 429 0
-382 -384 -393 -429 0
385 387 394 430 0
-385 -387 -394 -430 0
386 388 395 431 0
-386 -388 -395 -431 0
387 389 396 432 0
-387 -389 -396 -432 0
390 392 397 433 0
-390 -392 -397 -433 0
391 393 398 434 0
-391 -393 -398 -434 0
394 396 399 435 0
-394 -396 -399 -435 0
400 402 411 436 0
-400 -402 -411 -436 0
401 403 412 437 0
-401 -403 -412 -437 0
402 404 413 438 0
-402 -404 -413 -438 0
403 405 414 439 0
-403 -405 -414 -439 0
406 408 415 440 0
-406 -408 -415 -440 0
407 409 416 441 0
-407 -409 -416 -441 0
408 410 417 442 0
-408 -410 -417 -442 0
411 413 418 443 0
-411 -413 -418 -443 0
412 414 419 444 0
-412 -414 -419 -444 0
415 417 420 445 0
-415 -417 -420 -445 0
421 423 430 446 0
-421 -423 -430 -446 0
422 424 431 447 0
-422 -424 -431 -447 0
423 425 432 448 0
-423 -425 -432 -448 0
426 428 433 449 0
-426 -428 -433 -449 0
427 429 434 450 0
-427 -429 -434 -450 0
430 432 435 451 0
-430 -432 -435 -451 0
436 438 443 452 0
-436 -438 -443 -452 0
437 439 444 453 0
-437 -439 -444 -453 0
440 442 445 454 0
-440 -442 -445 -454 0
446 448 451 455 0
-446 -448 -451 -455 0
4 10 61 236 0
-4 -10 -61 -236 0
3 13 63 237 0
-3 -13 -63 -237 0
7 16 65 238 0
-7 -16 -65 -238 0
10 19 67 239 0
-10 -19 -67 -239 0
13 22 69 240 0
-13 -22 -69 -240 0
16 25 71 241 0
-16 -25 -71 -241 0
19 28 73 242 0
-19 -28 -73 -242 0
22 31 75 243 0
-22 -31 -75 -243 0
25 34 77 244 0
-25 -34 -77 -244 0
28 37 79 245 0
-28 -37 -79 -245 0
2 12 81 246 0
-2 -12 -81 -246 0
6 15 83 247 0
-6 -15 -83 -247 0
9 18 85 248 0
-9 -18 -85 -248 0
12 21 87 249 0
-12 -21 -87 -249 0
15 24 89 250 0
-15 -24 -89 -250 0
18 27 91 251 0
-18 -27 -91 -251 0
21 30 93 252 0
-21 -30 -93 -252 0
24 33 95 253 0
-24 -33 -95 -253 0
27 36 97 254 0
-27 -36 -97 -254 0
39 45 99 255 0
-39 -45 -99 -255 0
41 47 101 256 0
-41 -47 -101 -256 0
43 49 103 257 0
-43 -49 -103 -257 0
45 51 105 258 0
-45 -51 -105 -258 0
47 53 107 259 0
-47 -53 -107 -259 0
49 55 109 260 0
-49 -55 -109 -260 0
51 57 111 261 0
-51 -57 -111 -261 0
53 59 113 262 0
-53 -59 -113 -262 0
61 67 115 263 0
-61 -67 -115 -263 0
63 69 117 264 0
-63 -69 -117 -264 0
65 71 119 265 0
-65 -71 -119 -265 0
67 73 121 266 0
-67 -73 -121 -266 0
69 75 123 267 0
-69 -75 -123 -267 0
71 77 125 268 0
-71 -77 -125 -268 0
73 79 127 269 0
-73 -79 -127 -269 0
81 87 129 270 0
-81 -87 -129 -270 0
83 89 131 271 0
-83 -89 -131 -271 0
85 91 133 272 0
-85 -91 -133 -272 0
87 93 135 273 0
-87 -93 -135 -273 0
89 95 137 274 0
-89 -95 -137 -274 0
91 97 139 275 0
-91 -97 -139 -275 0
99 105 141 276 0
-99 -105 -141 -276 0
101 107 143 277 0
-101 -107 -143 -277 0
103 109 145 278 0
-103 -109 -145 -278 0
105 111 147 279 0
-105 -111 -147 -279 0
107 113 149 280 0
-107 -113 -149 -280 0
115 121 151 281 0
-115 -121 -151 -281 0
117 123 153 282 0
-117 -123 -153 -282 0
119 125 155 283 0
-119 -125 -155 -283 0
121 127 157 284 0
-121 -127 -157 -284 0
129 135 159 285 0
-129 -135 -159 -285 0
131 137 161 286 0
-131 -137 -161 -286 0
133 139 163 287 0
-133 -139 -163 -287 0
141 147 165 288 0
-141 -147 -165 -288 0
143 149 167 289 0
-143 -149 -167 -289 0
151 157 169 290 0
-151 -157 -169 -290 0
1 11 80 291 0
-1 -11 -80 -291 0
5 14 82 292 0
-5 -14 -82 -292 0
8 17 84 293 0
-8 -17 -84 -293 0
11 20 86 294 0
-11 -20 -86 -294 0
14 23 88 295 0
-14 -23 -88 -295 0
17 26 90 296 0
-17 -26 -90 -296 0
20 29 92 297 0
-20 -29 -92 -297 0
23 32 94 298 0
-23 -32 -94 -298 0
26 35 96 299 0
-26 -35 -96 -299 0
38 44 98 300 0
-38 -44 -98 -300 0
40 46 100 301 0
-40 -46 -100 -301 0
42 48 102 302 0
-42 -48 -102 -302 0
44 50 104 303 0
-44 -50 -104 -303 0
46 52 106 304 0
-46 -52 -106 -304 0
48 54 108 305 0
-48 -54 -108 -305 0
50 56 110 306 0
-50 -56 -110 -306 0
52 58 112 307 0
-52 -58 -112 -307 0
60 66 114 308 0
-60 -66 -114 -308 0
62 68 116 309 0
-62 -68 -116 -309 0
64 70 118 310 0
-64 -70 -118 -310 0
66 72 120 311 0
-66 -72 -120 -311 0
68 74 122 312 0
-68 -74 -122 -312 0
70 76 124 313 0
-70 -76 -124 -313 0
72 78 126 314 0
-72 -78 -126 -314 0
80 86 128 315 0
-80 -86 -128 -315 0
82 88 130 316 0
-82 -88 -130 -316 0
84 90 132 317 0
-84 -90 -132 -317 0
86 92 134 318 0
-86 -92 -134 -318 0
88 94 136 319 0
-88 -94 -136 -319 0
90 96 138 320 0
-90 -96 -138 -320 0
98 104 140 321 0
-98 -104 -140 -321 0
100 106 142 322 0
-100 -106 -142 -322 0
102 108 144 323 0
-102 -108 -144 -323 0
104 110 146 324 0
-104 -110 -146 -324 0
106 112 148 325 0
-106 -112 -148 -325 0
114 120 150 326 0
-114 -120 -150 -326 0
116 122 152 327 0
-116 -122 -152 -327 0
118 124 154 328 0
-118 -124 -154 -328 0
120 126 156 329 0
-120 -126 -156 -329 0
128 134 158 330 0
-128 -134 -158 -330 0
130 136 160 331 0
-130 -136 -160 -331 0
132 138 162 332 0
-132 -138 -162 -332 0
140 146 164 333 0
-140 -146 -164 -333 0
142 148 166 334 0
-142 -148 -166 -334 0
150 156 168 335 0
-150 -156 -168 -335 0
170 173 200 336 0
-170 -173 -200 -336 0
171 174 201 337 0
-171 -174 -201 -337 0
172 175 202 338 0
-172 -175 -202 -338 0
173 176 203 339 0
-173 -176 -203 -339 0
174 177 204 340 0
-174 -177 -204 -340 0
175 178 205 341 0
-175 -178 -205 -341 0
176 179 206 342 0
-176 -179 -206 -342 0
177 180 207 343 0
-177 -180 -207 -343 0
181 184 208 344 0
-181 -184 -208 -344 0
182 185 209 345 0
-182 -185 -209 -345 0
183 186 210 346 0
-183 -186 -210 -346 0
184 187 211 347 0
-184 -187 -211 -347 0
185 188 212 348 0
-185 -188 -212 -348 0
186 189 213 349 0
-186 -189 -213 -349 0
187 190 214 350 0
-187 -190 -214 -350 0
191 194 215 351 0
-191 -194 -215 -351 0
192 195 216 352 0
-192 -195 -216 -352 0
193 196 217 353 0
-193 -196 -217 -353 0
194 197 218 354 0
-194 -197 -218 -354 0
195 198 219 355 0
-195 -198 -219 -355 0
196 199 220 356 0
-196 -199 -220 -356 0
200 203 221 357 0
-200 -203 -221 -357 0
201 204 222 358 0
-201 -204 -222 -358 0
202 205 223 359 0
-202 -205 -223 -359 0
203 206 224 360 0
-203 -206 -224 -360 0
204 207 225 361 0
-204 -207 -225 -361 0
208 211 226 362 0
-208 -211 -226 -362 0
209 212 227 363 0
-209 -212 -227 -363 0
210 213 228 364 0
-210 -213 -228 -364 0
211 214 229 365 0
-211 -214 -229 -365 0
215 218 230 366 0
-215 -218 -230 -366 0
216 219 231 367 0
-216 -219 -231 -367 0
217 220 232 368 0
-217 -220 -232 -368 0
221 224 233 369 0
-221 -224 -233 -369 0
222 225 234 370 0
-222 -225 -234 -370 0
226 229 235 371 0
-226 -229 -235 -371 0
236 239 263 372 0
-236 -239 -263 -372 0
237 240 264 373 0
-237 -240 -264 -373 0
238 241 265 374 0
-238 -241 -265 -374 0
239 242 266 375 0
-239 -242 -266 -375 0
240 243 267 376 0
-240 -243 -267 -376 0
241 244 268 377 0
-241 -244 -268 -377 0
242 245 269 378 0
-242 -245 -269 -378 0
246 249 270 379 0
-246 -249 -270 -379 0
247 250 271 380 0
-247 -250 -271 -380 0
248 251 272 381 0
-248 -251 -272 -381 0
249 252 273 382 0
-249 -252 -273 -382 0
250 253 274 383 0
-250 -253 -274 -383 0
251 254 275 384 0
-251 -254 -275 -384 0
255 258 276 385 0
-255 -258 -276 -385 0
256 259 277 386 0
-256 -259 -277 -386 0
257 260 278 387 0
-257 -260 -278 -387 0
258 261 279 388 0
-258 -261 -279 -388 0
259 262 280 389 0
-259 -262 -280 -389 0
263 266 281 390 0
-263 -266 -281 -390 0
264 267 282 391 0
-264 -267 -282 -391 0
265 268 283 392 0
-265 -268 -283 -392 0
266 269 284 393 0
-266 -269 -284 -393 0
270 273 285 394 0
-270 -273 -285 -394 0
271 274 286 395 0
-271 -274 -286 -395 0
272 275 287 396 0
-272 -275 -287 -396 0
276 279 288 397 0
-276 -279 -288 -397 0
277 280 289 398 0
-277 -280 -289 -398 0
281 284 290 399 0
-281 -284 -290 -399 0
291 294 315 400 0
-291 -294 -315 -400 0
292 295 316 401 0
-292 -295 -316 -401 0
293 296 317 402 0
-293 -296 -317 -402 0
294 297 318 403 0
-294 -297 -318 -403 0
295 298 319 404 0
-295 -298 -319 -404 0
296 299 320 405 0
-296 -299 -320 -405 0
300 303 321 406 0
-300 -303 -321 -406 0
301 304 322 407 0
-301 -304 -322 -407 0
302 305 323 408 0
-302 -305 -323 -408 0
303 306 324 409 0
-303 -306 -324 -409 0
304 307 325 410 0
-304 -307 -325 -410 0
308 311 326 411 0
-308 -311 -326 -411 0
309 312 327 412 0
-309 -312 -327 -412 0
310 313 328 413 0
-310 -313 -328 -413 0
311 314 329 414 0
-311 -314 -329 -414 0
315 318 330 415 0
-315 -318 -330 -415 0
316 319 331 416 0
-316 -319 -331 -416 0
317 320 332 417 0
-317 -320 -332 -417 0
321 324 333 418 0
-321 -324 -333 -418 0
322 325 334 419 0
-322 -325 -334 -419 0
326 329 335 420 0
-326 -329 -335 -420 0
336 339 357 421 0
-336 -339 -357 -421 0
337 340 358 422 0
-337 -340 -358 -422 0
338 341 359 423 0
-338 -341 -359 -423 0
339 342 360 424 0
-339 -342 -360 -424 0
340 343 361 425 0
-340 -343 -361 -425 0
344 347 362 426 0
-344 -347 -362 -426 0
345 348 363 427 0
-345 -348 -363 -427 0
346 349 364 428 0
-346 -349 -364 -428 0
347 350 365 429 0
-347 -350 -365 -429 0
351 354 366 430 0
-351 -354 -366 -430 0
352 355 367 431 0
-352 -355 -367 -431 0
353 356 368 432 0
-353 -356 -368 -432 0
357 360 369 433 0
-357 -360 -369 -433 0
358 361 370 434 0
-358 -361 -370 -434 0
362 365 371 435 0
-362 -365 -371 -435 0
372 375 390 436 0
-372 -375 -390 -436 0
373 376 391 437 0
-373 -376 -391 -437 0
374 377 392 438 0
-374 -377 -392 -438 0
375 378 393 439 0
-375 -378 -393 -439 0
379 382 394 440 0
-379 -382 -394 -440 0
380 383 395 441 0
-380 -383 -395 -441 0
381 384 396 442 0
-381 -384 -396 -442 0
385 388 397 443 0
-385 -388 -397 -443 0
386 389 398 444 0
-386 -389 -398 -444 0
390 393 399 445 0
-390 -393 -399 -445 0
400 403 415 446 0
-400 -403 -415 -446 0
401 404 416 447 0
-401 -404 -416 -447 0
402 405 417 448 0
-402 -405 -417 -448 0
406 409 418 449 0
-406 -409 -418 -449 0
407 410 419 450 0
-407 -410 -419 -450 0
411 414 420 451 0
-411 -414 -420 -451 0
421 424 433 452 0
-421 -424 -433 -452 0
422 425 434 453 0
-422 -425 -434 -453 0
426 429 435 454 0
-426 -429 -435 -454 0
436 439 445 455 0
-436 -439 -445 -455 0
4 13 81 291 0
-4 -13 -81 -291 0
3 16 83 292 0
-3 -16 -83 -292 0
7 19 85 293 0
-7 -19 -85 -293 0
10 22 87 294 0
-10 -22 -87 -294 0
13 25 89 295 0
-13 -25 -89 -295 0
16 28 91 296 0
-16 -28 -91 -296 0
19 31 93 297 0
-19 -31 -93 -297 0
22 34 95 298 0
-22 -34 -95 -298 0
25 37 97 299 0
-25 -37 -97 -299 0
2 15 99 300 0
-2 -15 -99 -300 0
6 18 101 301 0
-6 -18 -101 -301 0
9 21 103 302 0
-9 -21 -103 -302 0
12 24 105 303 0
-12 -24 -105 -303 0
15 27 107 304 0
-15 -27 -107 -304 0
18 30 109 305 0
-18 -30 -109 -305 0
21 33 111 306 0
-21 -33 -111 -306 0
24 36 113 307 0
-24 -36 -113 -307 0
39 47 115 308 0
-39 -47 -115 -308 0
41 49 117 309 0
-41 -49 -117 -309 0
43 51 119 310 0
-43 -51 -119 -310 0
45 53 121 311 0
-45 -53 -121 -311 0
47 55 123 312 0
-47 -55 -123 -312 0
49 57 125 313 0
-49 -57 -125 -313 0
51 59 127 314 0
-51 -59 -127 -314 0
61 69 129 315 0
-61 -69 -129 -315 0
63 71 131 316 0
-63 -71 -131 -316 0
65 73 133 317 0
-65 -73 -133 -317 0
67 75 135 318 0
-67 -75 -135 -318 0
69 77 137 319 0
-69 -77 -137 -319 0
71 79 139 320 0
-71 -79 -139 -320 0
81 89 141 321 0
-81 -89 -141 -321 0
83 91 143 322 0
-83 -91 -143 -322 0
85 93 145 323 0
-85 -93 -145 -323 0
87 95 147 324 0
-87 -95 -147 -324 0
89 97 149 325 0
-89 -97 -149 -325 0
99 107 151 326 0
-99 -107 -151 -326 0
101 109 153 327 0
-101 -109 -153 -327 0
103 111 155 328 0
-103 -111 -155 -328 0
105 113 157 329 0
-105 -113 -157 -329 0
115 123 159 330 0
-115 -123 -159 -330 0
117 125 161 331 0
-117 -125 -161 -331 0
119 127 163 332 0
-119 -127 -163 -332 0
129 137 165 333 0
-129 -137 -165 -333 0
131 139 167 334 0
-131 -139 -167 -334 0
141 149 169 335 0
-141 -149 -169 -335 0
1 14 98 336 0
-1 -14 -98 -336 0
5 17 100 337 0
-5 -17 -100 -337 0
8 20 102 338 0
-8 -20 -102 -338 0
11 23 104 339 0
-11 -23 -104 -339 0
14 26 106 340 0
-14 -26 -106 -340 0
17 29 108 341 0
-17 -29 -108 -341 0
20 32 110 342 0
-20 -32 -110 -342 0
23 35 112 343 0
-23 -35 -112 -343 0
38 46 114 344 0
-38 -46 -114 -344 0
40 48 116 345 0
-40 -48 -116 -345 0
42 50 118 346 0
-42 -50 -118 -346 0
44 52 120 347 0
-44 -52 -120 -347 0
46 54 122 348 0
-46 -54 -122 -348 0
48 56 124 349 0
-48 -56 -124 -349 0
50 58 126 350 0
-50 -58 -126 -350 0
60 68 128 351 0
-60 -68 -128 -351 0
62 70 130 352 0
-62 -70 -130 -352 0
64 72 132 353 0
-64 -72 -132 -353 0
66 74 134 354 0
-66 -74 -134 -354 0
68 76 136 355 0
-68 -76 -136 -355 0
70 78 138 356 0
-70 -78 -138 -356 0
80 88 140 357 0
-80 -88 -140 -357 0
82 90 142 358 0
-82 -90 -142 -358 0
84 92 144 359 0
-84 -92 -144 -359 0
86 94 146 360 0
-86 -94 -146 -360 0
88 96 148 361 0
-88 -96 -148 -361 0
98 106 150 362 0
-98 -106 -150 -362 0
100 108 152 363 0
-100 -108 -152 -363 0
102 110 154 364 0
-102 -110 -154 -364 0
104 112 156 365 0
-104 -112 -156 -365 0
114 122 158 366 0
-114 -122 -158 -366 0
116 124 160 367 0
-116 -124 -160 -367 0
118 126 162 368 0
-118 -126 -162 -368 0
128 136 164 369 0
-128 -136 -164 -369 0
130 138 166 370 0
-130 -138 -166 -370 0
140 148 168 371 0
-140 -148 -168 -371 0
170 174 208 372 0
-170 -174 -208 -372 0
171 175 209 373 0
-171 -175 -209 -373 0
172 176 210 374 0
-172 -176 -210 -374 0
173 177 211 375 0
-173 -177 -211 -375 0
174 178 212 376 0
-174 -178 -212 -376 0
175 179 213 377 0
-175 -179 -213 -377 0
176 180 214 378 0
-176 -180 -214 -378 0
181 185 215 379 0
-181 -185 -215 -379 0
182 186 216 380 0
-182 -186 -216 -380 0
183 187 217 381 0
-183 -187 -217 -381 0
184 188 218 382 0
-184 -188 -218 -382 0
185 189 219 383 0
-185 -189 -219 -383 0
186 190 220 384 0
-186 -190 -220 -384 0
191 195 221 385 0
-191 -195 -221 -385 0
192 196 222 386 0
-192 -196 -222 -386 0
193 197 223 387 0
-193 -197 -223 -387 0
194 198 224 388 0
-194 -198 -224 -388 0
195 199 225 389 0
-195 -199 -225 -389 0
200 204 226 390 0
-200 -204 -226 -390 0
201 205 227 391 0
-201 -205 -227 -391 0
202 206 228 392 0
-202 -206 -228 -392 0
203 207 229 393 0
-203 -207 -229 -393 0
208 212 230 394 0
-208 -212 -230 -394 0
209 213 231 395 0
-209 -213 -231 -395 0
210 214 232 396 0
-210 -214 -232 -396 0
215 219 233 397 0
-215 -219 -233 -397 0
216 220 234 398 0
-216 -220 -234 -398 0
221 225 235 399 0
-221 -225 -235 -399 0
236 240 270 400 0
-236 -240 -270 -400 0
237 241 271 401 0
-237 -241 -271 -401 0
238 242 272 402 0
-238 -242 -272 -402 0
239 243 273 403 0
-239 -243 -273 -403 0
240 244 274 404 0
-240 -244 -274 -404 0
241 245 275 405 0
-241 -245 -275 -405 0
246 250 276 406 0
-246 -250 -276 -406 0
247 251 277 407 0
-247 -251 -277 -407 0
248 252 278 408 0
-248 -252 -278 -408 0
249 253 279 409 0
-249 -253 -279 -409 0
250 254 280 410 0
-250 -254 -280 -410 0
255 259 281 411 0
-255 -259 -281 -411 0
256 260 282 412 0
-256 -260 -282 -412 0
257 261 283 413 0
-257 -261 -283 -413 0
258 262 284 414 0
-258 -262 -284 -414 0
263 267 285 415 0
-263 -267 -285 -415 0
264 268 286 416 0
-264 -268 -286 -416 0
265 269 287 417 0
-265 -269 -287 -417 0
270 274 288 418 0
-270 -274 -288 -418 0
271 275 289 419 0
-271 -275 -289 -419 0
276 280 290 420 0
-276 -280 -290 -420 0
291 295 321 421 0
-291 -295 -321 -421 0
292 296 322 422 0
-292 -296 -322 -422 0
293 297 323 423 0
-293 -297 -323 -423 0
294 298 324 424 0
-294 -298 -324 -424 0
295 299 325 425 0
-295 -299 -325 -425 0
300 304 326 426 0
-300 -304 -326 -426 0
301 305 327 427 0
-301 -305 -327 -427 0
302 306 328 428 0
-302 -306 -328 -428 0
303 307 329 429 0
-303 -307 -329 -429 0
308 312 330 430 0
-308 -312 -330 -430 0
309 313 331 431 0
-309 -313 -331 -431 0
310 314 332 432 0
-310 -314 -332 -432 0
315 319 333 433 0
-315 -319 -333 -433 0
316 320 334 434 0
-316 -320 -334 -434 0
321 325 335 435 0
-321 -325 -335 -435 0
336 340 362 436 0
-336 -340 -362 -436 0
337 341 363 437 0
-337 -341 -363 -437 0
338 342 364 438 0
-338 -342 -364 -438 0
339 343 365 439 0
-339 -343 -365 -439 0
344 348 366 440 0
-344 -348 -366 -440 0
345 349 367 441 0
-345 -349 -367 -441 0
346 350 368 442 0
-346 -350 -368 -442 0
351 355 369 443 0
-351 -355 -369 -443 0
352 356 370 444 0
-352 -356 -370 -444 0
357 361 371 445 0
-357 -361 -371 -445 0
372 376 394 446 0
-372 -376 -394 -446 0
373 377 395 447 0
-373 -377 -395 -447 0
374 378 396 448 0
-374 -378 -396 -448 0
379 383 397 449 0
-379 -383 -397 -449 0
380 384 398 450 0
-380 -384 -398 -450 0
385 389 399 451 0
-385 -389 -399 -451 0
400 404 418 452 0
-400 -404 -418 -452 0
401 405 419 453 0
-401 -405 -419 -453 0
406 410 420 454 0
-406 -410 -420 -454 0
421 425 435 455 0
-421 -425 -435 -455 0
4 16 99 336 0
-4 -16 -99 -336 0
3 19 101 337 0
-3 -19 -101 -337 0
7 22 103 338 0
-7 -22 -103 -338 0
10 25 105 339 0
-10 -25 -105 -339 0
13 28 107 340 0
-13 -28 -107 -340 0
16 31 109 341 0
-16 -31 -109 -341 0
19 34 111 342 0
-19 -34 -111 -342 0
22 37 113 343 0
-22 -37 -113 -343 0
2 18 115 344 0
-2 -18 -115 -344 0
6 21 117 345 0
-6 -21 -117 -345 0
9 24 119 346 0
-9 -24 -119 -346 0
12 27 121 347 0
-12 -27 -121 -347 0
15 30 123 348 0
-15 -30 -123 -348 0
18 33 125 349 0
-18 -33 -125 -349 0
21 36 127 350 0
-21 -36 -127 -350 0
39 49 129 351 0
-39 -49 -129 -351 0
41 51 131 352 0
-41 -51 -131 -352 0
43 53 133 353 0
-43 -53 -133 -353 0
45 55 135 354 0
-45 -55 -135 -354 0
47 57 137 355 0
-47 -57 -137 -355 0
49 59 139 356 0
-49 -59 -139 -356 0
61 71 141 357 0
-61 -71 -141 -357 0
63 73 143 358 0
-63 -73 -143 -358 0
65 75 145 359 0
-65 -75 -145 -359 0
67 77 147 360 0
-67 -77 -147 -360 0
69 79 149 361 0
-69 -79 -149 -361 0
81 91 151 362 0
-81 -91 -151 -362 0
83 93 153 363 0
-83 -93 -153 -363 0
85 95 155 364 0
-85 -95 -155 -364 0
87 97 157 365 0
-87 -97 -157 -365 0
99 109 159 366 0
-99 -109 -159 -366 0
101 111 161 367 0
-101 -111 -161 -367 0
103 113 163 368 0
-103 -113 -163 -368 0
115 125 165 369 0
-115 -125 -165 -369 0
117 127 167 370 0
-117 -127 -167 -370 0
129 139 169 371 0
-129 -139 -169 -371 0
1 17 114 372 0
-1 -17 -114 -372 0
5 20 116 373 0
-5 -20 -116 -373 0
8 23 118 374 0
-8 -23 -118 -374 0
11 26 120 375 0
-11 -26 -120 -375 0
14 29 122 376 0
-14 -29 -122 -376 0
17 32 124 377 0
-17 -32 -124 -377 0
20 35 126 378 0
-20 -35 -126 -378 0
38 48 128 379 0
-38 -48 -128 -379 0
40 50 130 380 0
-40 -50 -130 -380 0
42 52 132 381 0
-42 -52 -132 -381 0
44 54 134 382 0
-44 -54 -134 -382 0
46 56 136 383 0
-46 -56 -136 -383 0
48 58 138 384 0
-48 -58 -138 -384 0
60 70 140 385 0
-60 -70 -140 -385 0
62 72 142 386 0
-62 -72 -142 -386 0
64 74 144 387 0
-64 -74 -144 -387 0
66 76 146 388 0
-66 -76 -146 -388 0
68 78 148 389 0
-68 -78 -148 -389 0
80 90 150 390 0
-80 -90 -150 -390 0
82 92 152 391 0
-82 -92 -152 -391 0
84 94 154 392 0
-84 -94 -154 -392 0
86 96 156 393 0
-86 -96 -156 -393 0
98 108 158 394 0
-98 -108 -158 -394 0
100 110 160 395 0
-100 -110 -160 -395 0
102 112 162 396 0
-102 -112 -162 -396 0
114 124 164 397 0
-114 -124 -164 -397 0
116 126 166 398 0
-116 -126 -166 -398 0
128 138 168 399 0
-128 -138 -168 -399 0
170 175 215 400 0
-170 -175 -215 -400 0
171 176 216 401 0
-171 -176 -216 -401 0
172 177 217 402 0
-172 -177 -217 -402 0
173 178 218 403 0
-173 -178 -218 -403 0
174 179 219 404 0
-174 -179 -219 -404 0
175 180 220 405 0
-175 -180 -220 -405 0
181 186 221 406 0
-181 -186 -221 -406 0
182 187 222 407 0
-182 -187 -222 -407 0
183 188 223 408 0
-183 -188 -223 -408 0
184 189 224 409 0
-184 -189 -224 -409 0
185 190 225 410 0
-185 -190 -225 -410 0
191 196 226 411 0
-191 -196 -226 -411 0
192 197 227 412 0
-192 -197 -227 -412 0
193 198 228 413 0
-193 -198 -228 -413 0
194 199 229 414 0
-194 -199 -229 -414 0
200 205 230 415 0
-200 -205 -230 -415 0
201 206 231 416 0
-201 -206 -231 -416 0
202 207 232 417 0
-202 -207 -232 -417 0
208 213 233 418 0
-208 -213 -233 -418 0
209 214 234 419 0
-209 -214 -234 -419 0
215 220 235 420 0
-215 -220 -235 -420 0
236 241 276 421 0
-236 -241 -276 -421 0
237 242 277 422 0
-237 -242 -277 -422 0
238 243 278 423 0
-238 -243 -278 -423 0
239 244 279 424 0
-239 -244 -279 -424 0
240 245 280 425 0
-240 -245 -280 -425 0
246 251 281 426 0
-246 -251 -281 -426 0
247 252 282 427 0
-247 -252 -282 -427 0
248 253 283 428 0
-248 -253 -283 -428 0
249 254 284 429 0
-249 -254 -284 -429 0
255 260 285 430 0
-255 -260 -285 -430 0
256 261 286 431 0
-256 -261 -286 -431 0
257 262 287 432 0
-257 -262 -287 -432 0
263 268 288 433 0
-263 -268 -288 -433 0
264 269 289 434 0
-264 -269 -289 -434 0
270 275 290 435 0
-270 -275 -290 -435 0
291 296 326 436 0
-291 -296 -326 -436 0
292 297 327 437 0
-292 -297 -327 -437 0
293 298 328 438 0
-293 -298 -328 -438 0
294 299 329 439 0
-294 -299 -329 -439 0
300 305 330 440 0
-300 -305 -330 -440 0
301 306 331 441 0
-301 -306 -331 -441 0
302 307 332 442 0
-302 -307 -332 -442 0
308 313 333 443 0
-308 -313 -333 -443 0
309 314 334 444 0
-309 -314 -334 -444 0
315 320 335 445 0
-315 -320 -335 -445 0
336 341 366 446 0
-336 -341 -366 -446 0
337 342 367 447 0
-337 -342 -367 -447 0
338 343 368 448 0
-338 -343 -368 -448 0
344 349 369 449 0
-344 -349 -369 -449 0
345 350 370 450 0
-345 -350 -370 -450 0
351 356 371 451 0
-351 -356 -371 -451 0
372 377 397 452 0
-372 -377 -397 -452 0
373 378 398 453 0
-373 -378 -398 -453 0
379 384 399 454 0
-379 -384 -399 -454 0
400 405 420 455 0
-400 -405 -420 -455 0
4 19 115 372 0
-4 -19 -115 -372 0
3 22 117 373 0
-3 -22 -117 -373 0
7 25 119 374 0
-7 -25 -119 -374 0
10 28 121 375 0
-10 -28 -121 -375 0
13 31 123 376 0
-13 -31 -123 -376 0
16 34 125 377 0
-16 -34 -125 -377 0
19 37 127 378 0
-19 -37 -127 -378 0
2 21 129 379 0
-2 -21 -129 -379 0
6 24 131 380 0
-6 -24 -131 -380 0
9 27 133 381 0
-9 -27 -133 -381 0
12 30 135 382 0
-12 -30 -135 -382 0
15 33 137 383 0
-15 -33 -137 -383 0
18 36 139 384 0
-18 -36 -139 -384 0
39 51 141 385 0
-39 -51 -141 -385 0
41 53 143 386 0
-41 -53 -143 -386 0
43 55 145 387 0
-43 -55 -145 -387 0
45 57 147 388 0
-45 -57 -147 -388 0
47 59 149 389 0
-47 -59 -149 -389 0
61 73 151 390 0
-61 -73 -151 -390 0
63 75 153 391 0
-63 -75 -153 -391 0
65 77 155 392 0
-65 -77 -155 -392 0
67 79 157 393 0
-67 -79 -157 -393 0
81 93 159 394 0
-81 -93 -159 -394 0
83 95 161 395 0
-83 -95 -161 -395 0
85 97 163 396 0
-85 -97 -163 -396 0
99 111 165 397 0
-99 -111 -165 -397 0
101 113 167 398 0
-101 -113 -167 -398 0
115 127 169 399 0
-115 -127 -169 -399 0
1 20 128 400 0
-1 -20 -128 -400 0
5 23 130 401 0
-5 -23 -130 -401 0
8 26 132 402 0
-8 -26 -132 -402 0
11 29 134 403 0
-11 -29 -134 -403 0
14 32 136 404 0
-14 -32 -136 -404 0
17 35 138 405 0
-17 -35 -138 -405 0
38 50 140 406 0
-38 -50 -140 -406 0
40 52 142 407 0
-40 -52 -142 -407 0
42 54 144 408 0
-42 -54 -144 -408 0
44 56 146 409 0
-44 -56 -146 -409 0
46 58 148 410 0
-46 -58 -148 -410 0
60 72 150 411 0
-60 -72 -150 -411 0
62 74 152 412 0
-62 -74 -152 -412 0
64 76 154 413 0
-64 -76 -154 -413 0
66 78 156 414 0
-66 -78 -156 -414 0
80 92 158 415 0
-80 -92 -158 -415 0
82 94 160 416 0
-82 -94 -160 -416 0
84 96 162 417 0
-84 -96 -162 -417 0
98 110 164 418 0
-98 -110 -164 -418 0
100 112 166 419 0
-100 -112 -166 -419 0
114 126 168 420 0
-114 -126 -168 -420 0
170 176 221 421 0
-170 -176 -221 -421 0
171 177 222 422 0
-171 -177 -222 -422 0
172 178 223 423 0
-172 -178 -223 -423 0
173 179 224 424 0
-173 -179 -224 -424 0
174 180 225 425 0
-174 -180 -225 -425 0
181 187 226 426 0
-181 -187 -226 -426 0
182 188 227 427 0
-182 -188 -227 -427 0
183 189 228 428 0
-183 -189 -228 -428 0
184 190 229 429 0
-184 -190 -229 -429 0
191 197 230 430 0
-191 -197 -230 -430 0
192 198 231 431 0
-192 -198 -231 -431 0
193 199 232 432 0
-193 -199 -232 -432 0
200 206 233 433 0
-200 -206 -233 -433 0
201 207 234 434 0
-201 -207 -234 -434 0
208 214 235 435 0
-208 -214 -235 -435 0
236 242 281 436 0
-236 -242 -281 -436 0
237 243 282 437 0
-237 -243 -282 -437 0
238 244 283 438 0
-238 -244 -283 -438 0
239 245 284 439 0
-239 -245 -284 -439 0
246 252 285 440 0
-246 -252 -285 -440 0
247 253 286 441 0
-247 -253 -286 -441 0
248 254 287 442 0
-248 -254 -287 -442 0
255 261 288 443 0
-255 -261 -288 -443 0
256 262 289 444 0
-256 -262 -289 -444 0
263 269 290 445 0
-263 -269 -290 -445 0
291 297 330 446 0
-291 -297 -330 -446 0
292 298 331 447 0
-292 -298 -331 -447 0
293 299 332 448 0
-293 -299 -332 -448 0
300 306 333 449 0
-300 -306 -333 -449 0
301 307 334 450 0
-301 -307 -334 -450 0
308 314 335 451 0
-308 -314 -335 -451 0
336 342 369 452 0
-336 -342 -369 -452 0
337 343 370 453 0
-337 -343 -370 -453 0
344 350 371 454 0
-344 -350 -371 -454 0
372 378 399 455 0
-372 -378 -399 -455 0
4 22 129 400 0
-4 -22 -129 -400 0
3 25 131 401 0
-3 -25 -131 -401 0
7 28 133 402 0
-7 -28 -133 -402 0
10 31 135 403 0
-10 -31 -135 -403 0
13 34 137 404 0
-13 -34 -137 -404 0
16 37 139 405 0
-16 -37 -139 -405 0
2 24 141 406 0
-2 -24 -141 -406 0
6 27 143 407 0
-6 -27 -143 -407 0
9 30 145 408 0
-9 -30 -145 -408 0
12 33 147 409 0
-12 -33 -147 -409 0
15 36 149 410 0
-15 -36 -149 -410 0
39 53 151 411 0
-39 -53 -151 -411 0
41 55 153 412 0
-41 -55 -153 -412 0
43 57 155 413 0
-43 -57 -155 -413 0
45 59 157 414 0
-45 -59 -157 -414 0
61 75 159 415 0
-61 -75 -159 -415 0
63 77 161 416 0
-63 -77 -161 -416 0
65 79 163 417 0
-65 -79 -163 -417 0
81 95 165 418 0
-81 -95 -165 -418 0
83 97 167 419 0
-83 -97 -167 -419 0
99 113 169 420 0
-99 -113 -169 -420 0
1 23 140 421 0
-1 -23 -140 -421 0
5 26 142 422 0
-5 -26 -142 -422 0
8 29 144 423 0
-8 -29 -144 -423 0
11 32 146 424 0
-11 -32 -146 -424 0
14 35 148 425 0
-14 -35 -148 -425 0
38 52 150 426 0
-38 -52 -150 -426 0
40 54 152 427 0
-40 -54 -152 -427 0
42 56 154 428 0
-42 -56 -154 -428 0
44 58 156 429 0
-44 -58 -156 -429 0
60 74 158 430 0
-60 -74 -158 -430 0
62 76 160 431 0
-62 -76 -160 -431 0
64 78 162 432 0
-64 -78 -162 -432 0
80 94 164 433 0
-80 -94 -164 -433 0
82 96 166 434 0
-82 -96 -166 -434 0
98 112 168 435 0
-98 -112 -168 -435 0
170 177 226 436 0
-170 -177 -226 -436 0
171 178 227 437 0
-171 -178 -227 -437 0
172 179 228 438 0
-172 -179 -228 -438 0
173 180 229 439 0
-173 -180 -229 -439 0
181 188 230 440 0
-181 -188 -230 -440 0
182 189 231 441 0
-182 -189 -231 -441 0
183 190 232 442 0
-183 -190 -232 -442 0
191 198 233 443 0
-191 -198 -233 -443 0
192 199 234 444 0
-192 -199 -234 -444 0
200 207 235 445 0
-200 -207 -235 -445 0
236 243 285 446 0
-236 -243 -285 -446 0
237 244 286 447 0
-237 -244 -286 -447 0
238 245 287 448 0
-238 -245 -287 -448 0
246 253 288 449 0
-246 -253 -288 -449 0
247 254 289 450 0
-247 -254 -289 -450 0
255 262 290 451 0
-255 -262 -290 -451 0
291 298 333 452 0
-291 -298 -333 -452 0
292 299 334 453 0
-292 -299 -334 -453 0
300 307 335 454 0
-300 -307 -335 -454 0
336 343 371 455 0
-336 -343 -371 -455 0
4 25 141 421 0
-4 -25 -141 -421 0
3 28 143 422 0
-3 -28 -143 -422 0
7 31 145 423 0
-7 -31 -145 -423 0
10 34 147 424 0
-10 -34 -147 -424 0
13 37 149 425 0
-13 -37 -149 -425 0
2 27 151 426 0
-2 -27 -151 -426 0
6 30 153 427 0
-6 -30 -153 -427 0
9 33 155 428 0
-9 -33 -155 -428 0
12 36 157 429 0
-12 -36 -157 -429 0
39 55 159 430 0
-39 -55 -159 -430 0
41 57 161 431 0
-41 -57 -161 -431 0
43 59 163 432 0
-43 -59 -163 -432 0
61 77 165 433 0
-61 -77 -165 -433 0
63 79 167 434 0
-63 -79 -167 -434 0
81 97 169 435 0
-81 -97 -169 -435 0
1 26 150 436 0
-1 -26 -150 -436 0
5 29 152 437 0
-5 -29 -152 -437 0
8 32 154 438 0
-8 -32 -154 -438 0
11 35 156 439 0
-11 -35 -156 -439 0
38 54 158 440 0
-38 -54 -158 -440 0
40 56 160 441 0
-40 -56 -160 -441 0
42 58 162 442 0
-42 -58 -162 -442 0
60 76 164 443 0
-60 -76 -164 -443 0
62 78 166 444 0
-62 -78 -166 -444 0
80 96 168 445 0
-80 -96 -168 -445 0
170 178 230 446 0
-170 -178 -230 -446 0
171 179 231 447 0
-171 -179 -231 -447 0
172 180 232 448 0
-172 -180 -232 -448 0
181 189 233 449 0
-181 -189 -233 -449 0
182 190 234 450 0
-182 -190 -234 -450 0
191 199 235 451 0
-191 -199 -235 -451 0
236 244 288 452 0
-236 -244 -288 -452 0
237 245 289 453 0
-237 -245 -289 -453 0
246 254 290 454 0
-246 -254 -290 -454 0
291 299 335 455 0
-291 -299 -335 -455 0
4 28 151 436 0
-4 -28 -151 -436 0
3 31 153 437 0
-3 -31 -153 -437 0
7 34 155 438 0
-7 -34 -155 -438 0
10 37 157 439 0
-10 -37 -157 -439 0
2 30 159 440 0
-2 -30 -159 -440 0
6 33 161 441 0
-6 -33 -161 -441 0
9 36 163 442 0
-9 -36 -163 -442 0
39 57 165 443 0
-39 -57 -165 -443 0
41 59 167 444 0
-41 -59 -167 -444 0
61 79 169 445 0
-61 -79 -169 -445 0
1 29 158 446 0
-1 -29 -158 -446 0
5 32 160 447 0
-5 -32 -160 -447 0
8 35 162 448 0
-8 -35 -162 -448 0
38 56 164 449 0
-38 -56 -164 -449 0
40 58 166 450 0
-40 -58 -166 -450 0
60 78 168 451 0
-60 -78 -168 -451 0
170 179 233 452 0
-170 -179 -233 -452 0
171 180 234 453 0
-171 -180 -234 -453 0
181 190 235 454 0
-181 -190 -235 -454 0
236 245 290 455 0
-236 -245 -290 -455 0
4 31 159 446 0
-4 -31 -159 -446 0
3 34 161 447 0
-3 -34 -161 -447 0
7 37 163 448 0
-7 -37 -163 -448 0
2 33 165 449 0
-2 -33 -165 -449 0
6 36 167 450 0
-6 -36 -167 -450 0
39 59 169 451 0
-39 -59 -169 -451 0
1 32 164 452 0
-1 -32 -164 -452 0
5 35 166 453 0
-5 -35 -166 -453 0
38 58 168 454 0
-38 -58 -168 -454 0
170 180 235 455 0
-170 -180 -235 -455 0
4 34 165 452 0
-4 -34 -165 -452 0
3 37 167 453 0
-3 -37 -167 -453 0
2 36 169 454 0
-2 -36 -169 -454 0
1 35 168 455 0
-1 -35 -168 -455 0
4 37 169 455 0
-4 -37 -169 -455 0
